1500
24.662 0.000 0.000 0.000 24.662 0.000 0.000 0.000 24.662
O       1.00678e+01     1.03543e+01    -1.03509e+01
H       9.89358e+00     9.79091e+00    -9.58411e+00
H       1.07141e+01     1.09454e+01    -9.94190e+00
O       1.35709e+01    -4.88060e+00     1.11226e+01
H       1.41444e+01    -5.50502e+00     1.05839e+01
H       1.41146e+01    -4.87558e+00     1.19510e+01
O       1.09041e+01    -4.51252e+00     5.42543e+00
H       1.02125e+01    -3.83342e+00     5.43679e+00
H       1.10310e+01    -4.73369e+00     6.39091e+00
O       4.35043e+00     1.03831e+01     8.57782e+00
H       4.49682e+00     1.08345e+01     7.69454e+00
H       4.96895e+00     9.64256e+00     8.53163e+00
O       6.47227e+00    -4.77965e+00     6.58779e+00
H       7.33002e+00    -4.89049e+00     7.10182e+00
H       6.79192e+00    -4.99715e+00     5.67996e+00
O      -3.88415e+00    -2.72153e+00     4.98033e+00
H      -3.43361e+00    -1.99615e+00     5.52867e+00
H      -4.46581e+00    -3.15281e+00     5.63543e+00
O       1.22432e+01     2.62777e+00     4.70494e+00
H       1.16883e+01     2.61067e+00     5.55464e+00
H       1.19221e+01     1.78324e+00     4.22076e+00
O      -3.26207e+00     5.57601e+00     1.17111e+01
H      -3.31246e+00     4.78699e+00     1.11029e+01
H      -2.34591e+00     5.67501e+00     1.19956e+01
O       6.83193e+00    -9.61648e+00     1.05823e+01
H       7.17410e+00    -9.09611e+00     9.82954e+00
H       7.02101e+00    -1.05844e+01     1.04928e+01
O       9.59019e+00     1.17187e+01     1.26856e+00
H       9.16115e+00     1.19966e+01     3.97929e-01
H       1.02621e+01     1.10997e+01     9.73367e-01
O      -3.87345e-01    -1.07260e+01     4.63401e-02
H       1.98422e-01    -9.93668e+00    -2.31400e-01
H      -3.72195e-01    -1.06882e+01     1.01352e+00
O      -1.68181e+00    -1.09553e+01     2.71502e+00
H      -2.49744e+00    -1.04169e+01     2.54564e+00
H      -1.76379e+00    -1.12887e+01     3.67064e+00
O       3.33581e+00     3.13248e+00     1.32369e+01
H       3.58493e+00     4.00537e+00     1.35622e+01
H       3.05602e+00     3.35046e+00     1.22589e+01
O       1.03383e+01     6.15598e+00    -1.14108e+01
H       9.58312e+00     6.12161e+00    -1.20543e+01
H       1.01003e+01     5.84605e+00    -1.05007e+01
O       1.26509e+01    -6.77225e+00     5.42220e-01
H       1.35745e+01    -6.74944e+00     2.73334e-01
H       1.20749e+01    -6.17852e+00    -3.37875e-02
O       5.66298e+00     2.98660e+00    -5.92154e+00
H       5.57953e+00     3.92532e+00    -5.73503e+00
H       6.01852e+00     2.88130e+00    -6.79294e+00
O       2.53256e+00    -1.10043e+01     1.06553e+01
H       3.34042e+00    -1.13639e+01     1.09510e+01
H       2.60994e+00    -1.11875e+01     9.70870e+00
O      -1.35625e+00    -6.05754e+00    -4.78621e+00
H      -1.14260e+00    -5.48023e+00    -4.03552e+00
H      -1.96263e+00    -6.73925e+00    -4.38591e+00
O      -3.50690e+00     1.08618e+01     3.97088e+00
H      -2.81624e+00     1.12220e+01     4.62430e+00
H      -3.12639e+00     1.08966e+01     3.08744e+00
O      -1.22895e+01    -8.73075e+00    -5.05936e+00
H      -1.24111e+01    -9.58490e+00    -4.50736e+00
H      -1.30415e+01    -8.15629e+00    -4.74456e+00
O      -6.40361e+00    -6.61633e+00     6.33968e+00
H      -6.06583e+00    -5.65498e+00     6.51070e+00
H      -5.59552e+00    -7.12525e+00     6.05430e+00
O      -1.13207e+01    -1.83728e+00     1.08912e+01
H      -1.16449e+01    -1.59855e+00     9.99119e+00
H      -1.13017e+01    -2.78668e+00     1.09381e+01
O      -1.15718e+01     1.81392e+00     1.00410e+01
H      -1.14384e+01     2.05659e+00     1.10283e+01
H      -1.10102e+01     1.08708e+00     9.68390e+00
O       1.22045e+01    -1.16497e+01     8.37996e+00
H       1.31971e+01    -1.14999e+01     8.55100e+00
H       1.22937e+01    -1.22385e+01     7.55269e+00
O       1.11490e+01    -7.98496e+00     2.27659e+00
H       1.05795e+01    -7.69682e+00     3.01484e+00
H       1.17454e+01    -7.28733e+00     1.91459e+00
O      -9.21996e+00     1.07674e+01    -3.93207e+00
H      -8.34455e+00     1.03397e+01    -4.03355e+00
H      -9.94031e+00     1.00621e+01    -3.96616e+00
O       2.78499e+00    -1.78114e+00    -8.30565e+00
H       2.26086e+00    -9.65354e-01    -8.24431e+00
H       2.84293e+00    -2.15652e+00    -7.37817e+00
O      -8.26268e+00     6.52778e+00     1.03671e+00
H      -7.68954e+00     7.19002e+00     5.91312e-01
H      -7.59766e+00     5.84969e+00     1.25221e+00
O      -7.29524e-01     5.79778e+00    -1.16615e+01
H      -5.24286e-01     5.22585e+00    -1.08918e+01
H      -4.69034e-01     6.72174e+00    -1.13849e+01
O       8.55794e-01    -7.81824e+00    -2.88924e+00
H       1.18457e+00    -8.12466e+00    -2.03703e+00
H       1.33937e+00    -6.97807e+00    -2.96231e+00
O      -1.21516e+01     4.07196e+00     8.58587e+00
H      -1.29007e+01     3.61379e+00     8.03001e+00
H      -1.18034e+01     3.25438e+00     9.01363e+00
O      -5.94351e+00    -1.89737e+00    -4.09219e+00
H      -6.61523e+00    -2.36785e+00    -4.65597e+00
H      -6.24678e+00    -9.70800e-01    -3.92542e+00
O      -6.55504e+00     7.58950e+00     4.90010e+00
H      -7.34820e+00     7.63565e+00     4.25753e+00
H      -6.84795e+00     7.66681e+00     5.81557e+00
O       5.72094e+00    -4.83130e+00    -1.87440e+00
H       6.46478e+00    -4.73279e+00    -1.17170e+00
H       5.17402e+00    -5.61407e+00    -1.73607e+00
O       1.03552e+01    -3.79012e+00     2.44563e+00
H       9.62924e+00    -4.38354e+00     2.19213e+00
H       9.82414e+00    -3.12421e+00     2.96551e+00
O       9.24303e+00     6.35623e+00     1.09620e+01
H       8.97567e+00     5.42093e+00     1.07534e+01
H       1.00716e+01     6.38193e+00     1.04497e+01
O      -2.71419e+00    -1.19842e+01    -5.79410e+00
H      -2.25956e+00    -1.25336e+01    -6.56280e+00
H      -2.93289e+00    -1.11781e+01    -6.23285e+00
O       1.16080e+01     6.33546e+00    -1.77457e+00
H       1.10604e+01     5.57024e+00    -1.51767e+00
H       1.24649e+01     5.92282e+00    -1.99249e+00
O      -1.03044e+01     1.07137e+01     5.85438e+00
H      -9.55051e+00     1.12733e+01     5.55445e+00
H      -1.00201e+01     1.01963e+01     6.63950e+00
O       8.69351e+00    -1.07106e+01    -6.58575e+00
H       8.09627e+00    -1.02919e+01    -5.98607e+00
H       9.31900e+00    -1.00451e+01    -6.82373e+00
O       3.43777e+00    -1.04779e+01     3.05134e-01
H       4.41284e+00    -1.02912e+01     2.13457e-01
H       3.22603e+00    -1.05825e+01     1.29472e+00
O      -1.98934e+00     9.51870e+00     1.02149e+01
H      -2.76751e+00     9.06890e+00     1.05283e+01
H      -2.26843e+00     1.04294e+01     1.00751e+01
O      -6.02012e+00    -7.84930e+00    -1.78361e+00
H      -5.74850e+00    -8.83305e+00    -1.74429e+00
H      -7.03148e+00    -7.85618e+00    -2.00459e+00
O      -7.53000e+00    -8.57979e+00    -7.68228e+00
H      -6.94239e+00    -8.85604e+00    -6.92158e+00
H      -8.09884e+00    -9.36037e+00    -7.89068e+00
O      -6.02071e+00    -2.57578e-01     2.37658e+00
H      -5.79324e+00    -7.87461e-01     1.56318e+00
H      -6.11561e+00     5.98034e-01     1.96358e+00
O       2.28716e+00    -4.72461e+00     1.04222e+01
H       2.37570e+00    -4.38502e+00     1.13027e+01
H       3.12515e+00    -5.23993e+00     1.02861e+01
O       9.67191e+00    -1.22212e-01    -2.96724e+00
H       1.00938e+01    -8.26782e-01    -3.49286e+00
H       1.03537e+01     7.40800e-02    -2.28266e+00
O       1.01855e+01     9.81774e+00     5.51782e+00
H       1.03775e+01     9.48575e+00     6.47163e+00
H       1.08474e+01     9.48803e+00     4.84886e+00
O       6.54182e-01    -8.71060e+00    -1.09457e+01
H       2.28791e-01    -8.32596e+00    -1.01921e+01
H       1.76422e-01    -8.33348e+00    -1.17310e+01
O      -1.07663e+01    -9.24381e+00     1.08091e+01
H      -1.01210e+01    -9.18994e+00     1.15897e+01
H      -1.16907e+01    -9.08850e+00     1.11867e+01
O       8.62987e+00     1.21002e+01     8.59184e+00
H       9.07165e+00     1.29674e+01     8.58530e+00
H       9.36034e+00     1.14900e+01     8.49605e+00
O      -6.35130e+00    -5.01737e+00     1.55221e+00
H      -6.77975e+00    -5.19234e+00     2.45275e+00
H      -5.83812e+00    -4.20395e+00     1.71387e+00
O      -1.41950e+01    -8.63676e+00    -7.35588e+00
H      -1.34915e+01    -8.75002e+00    -6.65114e+00
H      -1.46826e+01    -7.81561e+00    -7.16896e+00
O       9.55424e+00    -6.69747e+00     4.50624e+00
H       8.74212e+00    -6.34542e+00     4.11862e+00
H       9.90427e+00    -5.92350e+00     4.99325e+00
O      -1.18159e+01     8.10793e+00    -6.91392e+00
H      -1.17027e+01     8.29731e+00    -7.86257e+00
H      -1.27365e+01     8.34521e+00    -6.72371e+00
O       2.56812e+00    -2.44804e+00     9.21735e+00
H       3.58427e+00    -2.31565e+00     9.01182e+00
H       2.58516e+00    -3.33523e+00     9.58636e+00
O       1.12355e+01    -9.40052e+00     1.13484e+01
H       1.08493e+01    -9.92526e+00     1.05980e+01
H       1.14682e+01    -1.00281e+01     1.20828e+01
O       5.06267e+00     3.65336e+00    -6.69708e-01
H       4.89329e+00     2.87126e+00    -8.42652e-02
H       4.67288e+00     3.52734e+00    -1.61762e+00
O      -1.20565e+01    -4.59087e+00    -6.49284e+00
H      -1.24545e+01    -3.72071e+00    -6.43103e+00
H      -1.11645e+01    -4.42913e+00    -6.03389e+00
O       7.48530e+00    -4.80668e+00     4.02569e+00
H       7.55842e+00    -3.85334e+00     4.23682e+00
H       6.83623e+00    -4.91525e+00     3.24227e+00
O       7.62121e+00     8.65652e+00     1.11462e+01
H       8.23692e+00     7.94362e+00     1.08431e+01
H       8.19075e+00     9.36266e+00     1.10151e+01
O      -7.72219e+00     1.07189e+01     6.82955e-02
H      -7.27980e+00     9.86362e+00     1.98682e-01
H      -8.33635e+00     1.09042e+01     8.74289e-01
O       1.02074e+01    -5.16311e+00    -9.15831e+00
H       9.99939e+00    -5.57468e+00    -1.00216e+01
H       9.70257e+00    -5.79158e+00    -8.51251e+00
O      -1.36596e+00    -1.04031e+00    -1.71067e+00
H      -1.40654e+00    -1.73650e+00    -2.35878e+00
H      -1.89725e+00    -2.97550e-01    -2.09118e+00
O       6.66122e+00    -4.42860e+00     1.01077e+01
H       6.15196e+00    -5.22893e+00     1.02228e+01
H       6.90336e+00    -4.11562e+00     1.10350e+01
O       1.30275e+01    -9.49054e+00     6.62421e+00
H       1.27122e+01    -1.01439e+01     7.23446e+00
H       1.28659e+01    -8.58112e+00     7.06538e+00
O      -7.96764e+00    -4.44289e+00    -4.75440e-01
H      -7.16628e+00    -4.07122e+00    -9.78204e-01
H      -7.45596e+00    -4.66296e+00     3.53146e-01
O       1.86184e+00     1.36015e+01    -7.57376e+00
H       1.30231e+00     1.34634e+01    -6.79747e+00
H       2.70640e+00     1.31763e+01    -7.38065e+00
O       4.01953e+00    -1.23409e+01     4.39892e+00
H       4.66255e+00    -1.24019e+01     3.67335e+00
H       4.25536e+00    -1.16418e+01     5.06438e+00
O       2.98849e+00     7.32844e+00    -9.36084e-03
H       3.19399e+00     7.45094e+00     9.78381e-01
H       2.95736e+00     6.30871e+00    -1.40604e-01
O      -1.32577e+01    -1.28590e+01    -8.35692e+00
H      -1.34419e+01    -1.27628e+01    -7.45090e+00
H      -1.35747e+01    -1.21160e+01    -8.87965e+00
O       1.28734e+01    -9.03060e+00    -1.41071e+00
H       1.29043e+01    -8.08578e+00    -1.15767e+00
H       1.20569e+01    -9.34114e+00    -1.01366e+00
O      -6.12734e+00     1.18432e+01     1.07443e+01
H      -7.03165e+00     1.17650e+01     1.03015e+01
H      -5.50408e+00     1.17723e+01     9.98840e+00
O       1.74021e+00    -8.08593e+00    -7.77561e+00
H       2.59438e+00    -8.00992e+00    -8.32004e+00
H       1.51233e+00    -9.02312e+00    -7.61057e+00
O       9.59901e+00     1.40234e+00    -5.15219e+00
H       9.69683e+00     9.12551e-01    -4.32640e+00
H       9.13850e+00     2.20021e+00    -4.98177e+00
O      -2.82362e+00    -5.76475e+00    -7.57019e-01
H      -2.37212e+00    -6.47668e+00    -1.24383e+00
H      -3.64245e+00    -6.14138e+00    -2.93684e-01
O      -9.45736e+00     1.18993e+01    -1.64762e+00
H      -9.25402e+00     1.16095e+01    -2.54313e+00
H      -8.76781e+00     1.14065e+01    -1.14972e+00
O       7.38491e+00    -1.03141e+01    -2.29183e+00
H       6.87440e+00    -9.79897e+00    -1.66120e+00
H       7.26008e+00    -9.85284e+00    -3.10853e+00
O       1.19066e+01     4.80544e+00    -7.37099e+00
H       1.16272e+01     5.12585e+00    -6.50158e+00
H       1.27803e+01     5.19321e+00    -7.56803e+00
O      -5.18600e+00     4.82503e+00    -5.75925e+00
H      -5.49571e+00     5.60384e+00    -6.25135e+00
H      -5.53276e+00     5.01098e+00    -4.85968e+00
O      -9.60463e+00    -1.15914e+01    -5.38907e+00
H      -9.55069e+00    -1.24003e+01    -4.81837e+00
H      -9.07955e+00    -1.08756e+01    -4.99990e+00
O      -1.17524e+01     2.16524e+00    -1.19612e+01
H      -1.11355e+01     2.09253e+00    -1.12199e+01
H      -1.25478e+01     1.72270e+00    -1.17019e+01
O      -1.21545e+01     4.91271e+00    -1.20335e+01
H      -1.30206e+01     5.18714e+00    -1.16969e+01
H      -1.19681e+01     3.93303e+00    -1.19274e+01
O      -4.81583e+00    -2.78385e+00     2.30637e+00
H      -3.85369e+00    -2.99974e+00     1.89187e+00
H      -4.61890e+00    -2.47241e+00     3.23154e+00
O       4.97770e+00    -2.62540e+00    -9.74113e+00
H       4.53943e+00    -3.07868e+00    -1.04312e+01
H       4.24501e+00    -2.32546e+00    -9.19656e+00
O      -8.78580e+00    -9.03048e+00    -1.17295e+01
H      -8.02134e+00    -9.63704e+00    -1.18086e+01
H      -9.47775e+00    -9.34251e+00    -1.11265e+01
O       7.28809e+00     1.04853e+01     2.25109e+00
H       7.16930e+00     9.86265e+00     1.49067e+00
H       8.04179e+00     1.10012e+01     2.07697e+00
O       9.25042e+00    -1.19766e+01    -1.27596e+00
H       8.51588e+00    -1.14160e+01    -1.65488e+00
H       1.00063e+01    -1.13939e+01    -1.09510e+00
O       2.29034e-02     4.42814e+00    -9.62443e+00
H       4.37122e-01     3.65826e+00    -1.01044e+01
H       8.32797e-01     4.96496e+00    -9.33656e+00
O      -3.43555e+00    -2.77518e+00    -4.68163e+00
H      -4.30368e+00    -2.40277e+00    -4.52219e+00
H      -3.63480e+00    -3.48884e+00    -5.36119e+00
O      -2.15322e+00    -3.77722e+00     1.58105e+00
H      -1.77061e+00    -2.95982e+00     1.17215e+00
H      -2.05003e+00    -4.44193e+00     8.94533e-01
O      -5.03457e+00     6.94916e+00    -1.92563e+00
H      -4.57217e+00     6.11406e+00    -1.55909e+00
H      -4.37754e+00     7.38131e+00    -2.55775e+00
O       9.61927e+00     3.88122e+00     3.66698e+00
H       8.83845e+00     3.95165e+00     4.26687e+00
H       1.03332e+01     3.47027e+00     4.16210e+00
O       6.57467e-02     1.00379e+01     1.16515e+01
H      -7.04733e-01     9.73814e+00     1.11584e+01
H       7.66595e-01     9.79239e+00     1.10328e+01
O       2.30491e+00     4.76440e-01     8.38021e-03
H       2.27235e+00     1.29684e+00    -5.51580e-01
H       1.52769e+00     3.76888e-01     6.13562e-01
O       9.21591e+00    -6.02258e+00     8.31048e-01
H       8.64664e+00    -6.73670e+00     9.80111e-01
H       9.88560e+00    -6.50232e+00     2.93859e-01
O       1.03007e+01    -1.11541e+01    -1.01169e+01
H       1.05388e+01    -1.02088e+01    -9.97359e+00
H       9.35948e+00    -1.14492e+01    -9.79050e+00
O      -4.51874e-01    -1.42344e+00     1.47071e+01
H      -1.29731e+00    -1.73884e+00     1.51101e+01
H       1.09134e-01    -2.21733e+00     1.45257e+01
O      -9.41082e-01     9.38628e+00    -2.64744e+00
H      -1.20236e+00     1.02061e+01    -2.15451e+00
H      -4.00933e-01     9.76566e+00    -3.35823e+00
O      -1.16547e+01    -6.98718e+00     7.63793e+00
H      -1.10027e+01    -6.96558e+00     8.43240e+00
H      -1.13229e+01    -6.56626e+00     6.80886e+00
O       6.77523e+00     1.06161e+01    -4.22668e+00
H       7.60061e+00     1.04298e+01    -3.72451e+00
H       6.33304e+00     1.12691e+01    -3.60849e+00
O       2.35355e+00    -5.69386e+00     5.87282e+00
H       2.73769e+00    -5.95735e+00     4.99425e+00
H       1.59493e+00    -4.97726e+00     5.66541e+00
O       8.25691e+00    -8.29498e-01    -9.24062e+00
H       8.86809e+00    -7.00114e-02    -9.40416e+00
H       7.44482e+00    -6.20944e-01    -9.84030e+00
O      -1.02381e+01     5.70136e+00    -6.83355e+00
H      -9.76460e+00     6.23812e+00    -7.54149e+00
H      -1.08612e+01     6.33830e+00    -6.35014e+00
O       9.50197e+00     4.71437e+00    -8.35076e-01
H       9.03443e+00     5.40284e+00    -3.08003e-01
H       8.78512e+00     4.41242e+00    -1.48217e+00
O       7.93395e-01     6.51093e+00     3.43093e+00
H       4.86719e-01     5.61799e+00     3.15219e+00
H       5.86384e-01     6.48569e+00     4.39311e+00
O       2.76752e+00     9.28161e+00    -6.08312e+00
H       3.04813e+00     8.32943e+00    -5.87791e+00
H       3.60835e+00     9.76643e+00    -6.35303e+00
O      -7.45139e+00    -2.94075e+00    -6.11396e+00
H      -7.01461e+00    -3.59411e+00    -6.68219e+00
H      -8.30756e+00    -3.35310e+00    -5.79064e+00
O       1.47569e-01     4.99355e+00    -2.44678e+00
H      -8.11522e-01     4.97239e+00    -2.62504e+00
H       2.83289e-01     5.92526e+00    -2.08988e+00
O      -7.48040e+00    -5.64464e+00     3.87484e+00
H      -7.02959e+00    -5.90382e+00     4.78571e+00
H      -8.16481e+00    -4.95679e+00     4.10132e+00
O       1.31274e+01    -5.25116e+00    -2.51199e+00
H       1.38105e+01    -5.55786e+00    -1.89127e+00
H       1.30304e+01    -6.00844e+00    -3.13985e+00
O       1.33455e+00    -3.56517e+00    -9.70496e+00
H       8.80121e-01    -4.19683e+00    -9.12034e+00
H       1.89052e+00    -3.11587e+00    -9.01764e+00
O      -5.70608e+00     1.64663e+00    -1.07272e+01
H      -6.42746e+00     2.29460e+00    -1.04217e+01
H      -4.79667e+00     2.00139e+00    -1.05457e+01
O       1.23579e+00    -4.33695e+00     6.50515e-01
H       9.48595e-01    -4.19757e+00    -2.46648e-01
H       1.15420e+00    -3.43338e+00     1.13511e+00
O      -3.02070e+00    -1.29027e+01     1.26645e+00
H      -2.56874e+00    -1.22305e+01     1.83086e+00
H      -2.41518e+00    -1.31925e+01     4.93916e-01
O      -1.86743e+00    -6.91273e+00     5.65406e+00
H      -2.64954e+00    -7.45787e+00     5.42943e+00
H      -2.00665e+00    -6.07328e+00     5.25238e+00
O      -6.08521e+00    -4.64840e+00    -8.05049e+00
H      -6.20761e+00    -5.63154e+00    -8.22244e+00
H      -6.68408e+00    -4.27209e+00    -8.74899e+00
O      -8.98931e+00     2.99216e+00    -6.03443e+00
H      -8.01855e+00     3.14288e+00    -6.13618e+00
H      -9.43303e+00     3.84633e+00    -6.25720e+00
O      -6.25646e+00    -1.06660e+01     2.20487e+00
H      -7.08135e+00    -1.03625e+01     1.79243e+00
H      -5.99452e+00    -1.12883e+01     1.49424e+00
O       5.42041e-01    -7.19644e+00     9.83290e+00
H       9.65142e-01    -6.33916e+00     1.01279e+01
H      -1.01929e-01    -6.94805e+00     9.07847e+00
O      -1.18130e+01    -4.75316e+00    -9.14563e+00
H      -1.16634e+01    -4.65128e+00    -8.15943e+00
H      -1.28086e+01    -5.01351e+00    -9.17021e+00
O       3.34204e-01     6.73178e+00     6.29226e+00
H      -7.58460e-02     7.39315e+00     6.95412e+00
H       1.27708e+00     6.75879e+00     6.58050e+00
O      -8.85851e+00    -3.34143e-01     2.80835e+00
H      -8.96334e+00     2.40426e-01     3.62188e+00
H      -7.91342e+00    -4.80842e-01     2.82652e+00
O       5.03327e+00     1.63327e+00     9.36081e+00
H       5.39021e+00     9.74051e-01     9.99296e+00
H       4.09136e+00     1.41152e+00     9.24874e+00
O      -7.81338e+00    -6.42025e+00    -1.16900e+01
H      -8.34601e+00    -7.25711e+00    -1.18480e+01
H      -8.49012e+00    -5.78505e+00    -1.13391e+01
O      -1.05784e+01    -2.32161e+00     3.52758e+00
H      -1.09124e+01    -2.66630e+00     2.72326e+00
H      -9.93008e+00    -1.62916e+00     3.34328e+00
O       4.48890e+00    -6.30111e+00     7.24873e+00
H       5.25973e+00    -5.77941e+00     7.17906e+00
H       3.78686e+00    -5.87682e+00     6.76314e+00
O      -7.27547e+00     7.94045e+00    -1.02787e+01
H      -7.92042e+00     8.44094e+00    -1.08188e+01
H      -7.15562e+00     7.03815e+00    -1.05609e+01
O       3.96916e+00     6.44922e+00     9.74426e+00
H       3.71164e+00     6.93495e+00     1.05861e+01
H       3.37939e+00     6.84520e+00     9.08016e+00
O       6.21503e+00     8.09693e+00     8.75130e+00
H       6.67875e+00     8.43528e+00     9.48562e+00
H       5.63872e+00     7.41951e+00     9.02568e+00
O      -8.78429e+00     7.13777e+00     3.61705e+00
H      -8.59548e+00     7.05793e+00     2.61459e+00
H      -9.55284e+00     7.73147e+00     3.61234e+00
O       4.44494e-01     4.19204e+00     2.05356e+00
H       1.28379e+00     4.38203e+00     1.47986e+00
H      -2.05029e-01     4.15083e+00     1.37136e+00
O      -2.14640e+00     2.01214e+00     4.27597e+00
H      -2.69936e+00     2.04326e+00     5.09804e+00
H      -2.60512e+00     1.34085e+00     3.68014e+00
O      -7.58742e+00    -7.58210e+00     8.86296e+00
H      -7.59127e+00    -8.43025e+00     8.33871e+00
H      -7.26675e+00    -6.92684e+00     8.26579e+00
O      -7.82429e+00    -9.93299e+00     7.71936e+00
H      -7.13905e+00    -1.07182e+01     7.82676e+00
H      -8.10876e+00    -9.99778e+00     6.78820e+00
O       3.93199e+00     5.59848e+00    -1.04670e+01
H       4.88405e+00     5.80067e+00    -1.02857e+01
H       3.63648e+00     6.21663e+00    -1.11484e+01
O      -1.92864e+00    -4.49038e+00     4.45566e+00
H      -1.79109e+00    -4.45038e+00     3.49945e+00
H      -2.74641e+00    -3.94519e+00     4.59270e+00
O       3.37937e+00     1.89626e+00    -5.11510e+00
H       4.25733e+00     1.86838e+00    -5.52157e+00
H       2.82558e+00     2.42330e+00    -5.76593e+00
O      -3.52875e+00    -8.59675e+00     9.36303e+00
H      -4.18387e+00    -8.24552e+00     9.99307e+00
H      -2.88745e+00    -9.16284e+00     9.85550e+00
O       1.35644e+01     6.40013e-01     1.87326e+00
H       1.45209e+01     4.79263e-01     2.15605e+00
H       1.34968e+01     1.58823e+00     1.57972e+00
O      -5.41684e+00     9.83470e+00    -9.91048e+00
H      -5.84060e+00     9.00188e+00    -1.01950e+01
H      -5.08226e+00     1.01946e+01    -1.07902e+01
O       1.07655e+01    -6.29785e+00    -5.07616e+00
H       1.05256e+01    -5.70524e+00    -4.35484e+00
H       1.14483e+01    -5.61948e+00    -5.47998e+00
O       1.13127e+00     2.05569e+00    -1.04082e+01
H       4.16449e-01     1.87100e+00    -1.10796e+01
H       1.86598e+00     2.42712e+00    -1.08507e+01
O       2.46832e+00    -4.55507e-01     1.09738e+01
H       3.37165e+00    -3.51030e-01     1.12386e+01
H       2.49279e+00    -1.30013e+00     1.04039e+01
O       8.73486e-01    -1.89092e+00     7.34140e+00
H       1.43404e+00    -2.27483e+00     8.13178e+00
H       5.66504e-01    -2.69883e+00     6.85934e+00
O      -8.14955e+00     5.79864e+00     8.95905e+00
H      -7.80304e+00     5.17424e+00     9.61735e+00
H      -8.91039e+00     5.39383e+00     8.55441e+00
O       2.55599e+00     3.99650e+00     1.06721e+01
H       2.92483e+00     4.83941e+00     1.04167e+01
H       1.65770e+00     4.14514e+00     1.09655e+01
O      -1.02965e+01    -1.00792e-01     8.71869e+00
H      -9.75779e+00     6.18663e-01     8.35553e+00
H      -9.65270e+00    -6.71044e-01     9.25837e+00
O       6.63349e+00    -6.94375e+00    -5.72607e+00
H       6.84883e+00    -6.20601e+00    -5.11418e+00
H       5.89050e+00    -6.65181e+00    -6.29220e+00
O      -3.15995e+00    -6.53393e+00    -1.25129e+01
H      -3.96199e+00    -7.04289e+00    -1.27064e+01
H      -3.40122e+00    -5.56330e+00    -1.23703e+01
O      -3.14079e+00     3.18832e+00    -4.67932e+00
H      -2.32195e+00     3.06031e+00    -5.22043e+00
H      -3.81564e+00     3.59919e+00    -5.22528e+00
O      -9.02725e+00    -3.94677e+00     9.00932e+00
H      -8.43437e+00    -4.61627e+00     9.42405e+00
H      -8.64501e+00    -3.74921e+00     8.13544e+00
O       1.17113e+01     1.18814e+01     6.01840e+00
H       1.11525e+01     1.10647e+01     5.86455e+00
H       1.25388e+01     1.17817e+01     5.57204e+00
O      -4.30100e+00    -8.03495e+00     5.26765e+00
H      -4.38604e+00    -8.49305e+00     4.41244e+00
H      -4.35970e+00    -8.77190e+00     5.98304e+00
O      -6.11958e+00     5.02066e+00     1.77925e+00
H      -5.39763e+00     5.68576e+00     1.67721e+00
H      -6.32516e+00     5.06027e+00     2.74599e+00
O       6.37307e+00     8.42768e+00    -1.09149e+01
H       6.74198e+00     8.64261e+00    -1.17829e+01
H       6.75553e+00     9.15167e+00    -1.02588e+01
O       4.43575e+00     2.98290e+00     5.30739e+00
H       5.00892e+00     2.39233e+00     5.88218e+00
H       5.08862e+00     3.53034e+00     4.76334e+00
O       7.09972e+00    -1.19608e+01     1.14210e+01
H       6.28620e+00    -1.24771e+01     1.13219e+01
H       7.87885e+00    -1.25169e+01     1.12908e+01
O      -3.40725e-01     4.33344e+00     1.07092e+01
H      -2.53900e-01     5.13788e+00     1.12991e+01
H      -2.70001e-01     4.70602e+00     9.79890e+00
O       6.17271e+00     1.30028e+00     6.85023e+00
H       5.88364e+00     1.46503e+00     7.71371e+00
H       5.82868e+00     3.82525e-01     6.67717e+00
O      -3.98283e+00    -4.03163e+00    -1.18117e+01
H      -3.36742e+00    -3.40742e+00    -1.22246e+01
H      -3.70328e+00    -4.24012e+00    -1.08747e+01
O      -8.71975e+00     4.52674e+00     4.55052e+00
H      -7.81426e+00     4.62911e+00     4.83045e+00
H      -8.77032e+00     5.41984e+00     4.17781e+00
O       4.58287e+00    -2.44872e+00    -1.82142e+00
H       5.02882e+00    -3.33875e+00    -2.11602e+00
H       5.32126e+00    -1.83163e+00    -1.57656e+00
O       1.34536e+00    -8.64774e+00    -3.88071e-01
H       2.09937e+00    -9.24674e+00    -1.57222e-01
H       1.47523e+00    -7.81593e+00     2.16155e-01
O       9.01290e-01     1.09067e+01     7.85178e+00
H       1.16287e+00     1.04965e+01     7.01931e+00
H       1.47976e+00     1.17616e+01     7.88240e+00
O       1.18067e+01    -8.70916e+00    -9.63625e+00
H       1.13750e+01    -8.52949e+00    -8.78441e+00
H       1.13384e+01    -8.08225e+00    -1.02799e+01
O       4.91776e+00     7.37544e+00     4.70398e+00
H       5.85501e+00     7.09553e+00     4.66256e+00
H       5.01850e+00     8.31589e+00     4.98262e+00
O       1.04424e+01     9.08120e+00    -6.02064e+00
H       1.04026e+01     1.00488e+01    -5.86343e+00
H       1.04456e+01     8.67155e+00    -5.11838e+00
O      -3.36259e+00     3.14246e+00    -1.08387e+01
H      -2.48327e+00     2.97467e+00    -1.12539e+01
H      -3.66356e+00     3.93719e+00    -1.12825e+01
O      -5.96700e+00    -1.16993e+01     7.09659e+00
H      -5.58854e+00    -1.25150e+01     7.54272e+00
H      -5.98377e+00    -1.20073e+01     6.16479e+00
O      -1.44099e+00    -1.22600e+01     5.08691e+00
H      -1.44988e+00    -1.17320e+01     5.96320e+00
H      -5.23087e-01    -1.25046e+01     4.80437e+00
O      -1.23123e+01    -1.15480e+01    -1.18817e+01
H      -1.29946e+01    -1.16907e+01    -1.12174e+01
H      -1.16342e+01    -1.10781e+01    -1.13222e+01
O      -3.30924e+00     4.15075e-01     2.40558e+00
H      -4.25407e+00     1.12664e-01     2.56230e+00
H      -3.41003e+00     1.00367e+00     1.67508e+00
O      -8.40891e+00    -6.39726e+00    -6.23525e+00
H      -7.56291e+00    -5.99986e+00    -5.94367e+00
H      -8.20504e+00    -7.10693e+00    -6.87486e+00
O       3.37143e-01     7.44150e+00    -1.03390e+00
H      -3.23458e-02     8.09355e+00    -1.63540e+00
H       9.49872e-01     7.89964e+00    -3.95935e-01
O      -5.51302e+00    -7.80665e+00     1.10553e+01
H      -6.02395e+00    -8.54072e+00     1.13939e+01
H      -6.17397e+00    -7.22841e+00     1.06071e+01
O      -1.13355e+00     1.09867e+01    -7.03773e+00
H      -7.30097e-01     1.09347e+01    -8.00411e+00
H      -3.84423e-01     1.09163e+01    -6.42280e+00
O       5.80334e-01    -1.04786e-01     1.90461e+00
H      -2.37588e-01    -5.66257e-01     1.67148e+00
H       2.67625e-01     6.26873e-01     2.47820e+00
O       5.05252e+00    -1.27504e+01     2.02114e+00
H       5.02692e+00    -1.28891e+01     1.04227e+00
H       5.85462e+00    -1.33140e+01     2.16343e+00
O      -9.77622e+00     1.76907e+00     4.79503e+00
H      -9.51174e+00     2.69851e+00     4.64966e+00
H      -1.07883e+01     1.93825e+00     4.79625e+00
O       7.47218e+00     5.16356e+00    -8.23180e+00
H       7.07442e+00     5.49326e+00    -9.08911e+00
H       7.24250e+00     4.18513e+00    -8.27874e+00
O      -3.73914e+00    -8.72221e+00    -9.41408e+00
H      -4.48889e+00    -8.18695e+00    -9.68014e+00
H      -3.55870e+00    -9.31587e+00    -1.01612e+01
O      -3.20906e+00     1.15004e+00    -2.84281e+00
H      -3.41427e+00     1.84543e+00    -3.44218e+00
H      -4.07654e+00     6.98421e-01    -2.74620e+00
O      -3.21040e+00    -1.03030e+01    -1.14266e+01
H      -2.50177e+00    -1.09844e+01    -1.12523e+01
H      -3.11735e+00    -1.00736e+01    -1.24118e+01
O       2.57852e-01    -1.09801e+01    -5.29210e+00
H      -3.95554e-01    -1.16937e+01    -5.33565e+00
H       7.83864e-01    -1.10524e+01    -4.43607e+00
O      -2.25458e+00    -9.89062e+00    -1.77547e+00
H      -1.90825e+00    -9.96355e+00    -8.36575e-01
H      -2.04033e+00    -1.07533e+01    -2.29094e+00
O       5.24027e+00    -2.39318e+00     9.28070e+00
H       5.54076e+00    -2.22342e+00     8.37355e+00
H       5.70135e+00    -3.17137e+00     9.62998e+00
O      -1.26069e+01     6.05467e+00     1.02023e+01
H      -1.23309e+01     5.81509e+00     1.11006e+01
H      -1.26436e+01     5.15780e+00     9.78129e+00
O      -9.82563e-01     7.87094e+00     8.43609e+00
H      -1.78240e+00     7.30278e+00     8.33033e+00
H      -1.25715e+00     8.65497e+00     8.90557e+00
O      -7.42819e+00    -3.56438e-01     5.46349e+00
H      -7.05595e+00     3.83422e-01     6.02041e+00
H      -6.79263e+00    -3.42791e-01     4.68810e+00
O       3.60610e+00     6.92212e+00    -5.42765e+00
H       4.29249e+00     6.30285e+00    -5.93713e+00
H       2.89381e+00     6.32716e+00    -5.03501e+00
O      -1.33162e+01    -2.15157e+00    -6.55416e+00
H      -1.28280e+01    -1.97762e+00    -7.41740e+00
H      -1.42582e+01    -2.26297e+00    -6.70611e+00
O      -4.76124e+00    -7.02791e+00     5.66464e-01
H      -5.24396e+00    -7.29166e+00    -2.28227e-01
H      -5.39753e+00    -6.28997e+00     9.16003e-01
O      -8.05516e+00    -2.73984e+00     6.83246e+00
H      -7.97701e+00    -1.77674e+00     6.67974e+00
H      -8.41473e+00    -3.08971e+00     6.04313e+00
O       1.26124e+01    -2.05363e+00    -8.99597e+00
H       1.26735e+01    -3.02469e+00    -9.01755e+00
H       1.20034e+01    -1.81698e+00    -9.77257e+00
O       8.25753e+00    -5.48811e+00     8.44663e+00
H       9.15030e+00    -5.18047e+00     8.22705e+00
H       7.80683e+00    -4.99749e+00     9.16958e+00
O       1.04425e+01     5.20341e+00    -5.27962e+00
H       9.78099e+00     4.53146e+00    -5.38515e+00
H       1.01317e+01     5.84612e+00    -4.56870e+00
O       2.68261e+00    -8.48265e+00    -5.11185e+00
H       2.49597e+00    -8.16690e+00    -6.03330e+00
H       2.04931e+00    -8.09739e+00    -4.49686e+00
O       9.86456e+00    -1.91765e+00     4.39429e+00
H       1.04692e+01    -1.19740e+00     4.15915e+00
H       9.34820e+00    -1.56181e+00     5.16087e+00
O       8.00150e-01     1.06360e+01    -4.68182e+00
H       1.06435e+00     1.14621e+01    -4.32248e+00
H       1.63498e+00     1.02808e+01    -5.04333e+00
O       2.76646e+00     1.15986e+01    -1.14531e+01
H       1.79124e+00     1.13247e+01    -1.15517e+01
H       2.63932e+00     1.24827e+01    -1.10715e+01
O       3.70382e-01    -9.30356e+00     7.96386e+00
H       4.27685e-01    -8.58069e+00     7.30693e+00
H       6.64942e-01    -8.88686e+00     8.76539e+00
O       9.26133e+00     8.62048e+00    -8.33169e+00
H       9.66057e+00     8.88147e+00    -7.51406e+00
H       9.31147e+00     7.65822e+00    -8.42353e+00
O       6.84481e+00    -1.05591e+01    -1.09900e+01
H       6.93762e+00    -1.09153e+01    -1.19199e+01
H       7.48734e+00    -9.81716e+00    -1.10542e+01
O      -6.30748e+00    -2.80155e+00    -1.04497e+01
H      -5.71909e+00    -2.03102e+00    -1.04656e+01
H      -5.84106e+00    -3.37014e+00    -1.11428e+01
O       2.06653e+00     5.05516e+00    -4.40047e+00
H       1.29613e+00     5.18446e+00    -3.76199e+00
H       1.75152e+00     4.36676e+00    -5.03951e+00
O      -1.00437e+01     4.82647e+00     7.04589e+00
H      -1.00194e+01     4.86754e+00     6.06409e+00
H      -1.09125e+01     4.49692e+00     7.35347e+00
O       1.03322e+01     1.56399e+00     1.03607e+01
H       1.02331e+01     1.39965e+00     1.12950e+01
H       1.13083e+01     1.58792e+00     1.02049e+01
O       8.82404e+00     1.00881e+01    -2.49853e+00
H       9.63281e+00     9.56023e+00    -2.67920e+00
H       9.28113e+00     1.09045e+01    -2.09332e+00
O       2.36467e+00     1.14208e+00     5.16112e+00
H       1.71976e+00     1.38425e+00     4.39804e+00
H       3.12330e+00     1.75901e+00     5.05600e+00
O      -5.70082e+00    -8.74724e+00    -5.46472e+00
H      -5.82582e+00    -7.80795e+00    -5.45885e+00
H      -4.79098e+00    -8.94759e+00    -5.78993e+00
O       1.14171e+01     8.82763e+00     3.53103e+00
H       1.12973e+01     9.11454e+00     2.57909e+00
H       1.10585e+01     7.92844e+00     3.49335e+00
O      -4.04560e+00    -9.08629e+00     2.69477e+00
H      -4.02715e+00    -8.36589e+00     2.03012e+00
H      -4.82135e+00    -9.60631e+00     2.51865e+00
O       1.84618e+00     2.92555e+00    -1.44139e+00
H       2.48820e+00     3.02553e+00    -2.19962e+00
H       1.09061e+00     3.51748e+00    -1.67034e+00
O      -7.05306e+00     7.74622e+00     7.46801e+00
H      -7.81490e+00     8.33631e+00     7.70414e+00
H      -7.31301e+00     6.97314e+00     8.00422e+00
O      -7.59040e+00    -8.66684e-01    -7.74984e+00
H      -8.24617e+00    -2.37010e-01    -7.31277e+00
H      -7.55814e+00    -1.67384e+00    -7.09986e+00
O      -7.53457e+00     5.36493e+00    -1.11290e+01
H      -7.53865e+00     4.53282e+00    -1.05760e+01
H      -8.39252e+00     5.84260e+00    -1.10767e+01
O      -8.36876e+00    -1.52065e+00     1.01632e+01
H      -8.47248e+00    -2.44886e+00     9.90732e+00
H      -8.63364e+00    -1.68228e+00     1.10729e+01
O       4.21229e-01     1.10948e+01    -9.19239e+00
H      -2.99261e-02     1.18281e+01    -9.63056e+00
H       1.15014e+00     1.15401e+01    -8.72953e+00
O       1.00302e+01     6.06069e+00    -8.78157e+00
H       9.21414e+00     5.57527e+00    -8.49961e+00
H       1.08222e+01     5.67275e+00    -8.38311e+00
O       1.04906e+01     1.08197e+00    -1.16640e+01
H       1.02155e+01     1.33695e+00    -1.07266e+01
H       1.08680e+01     1.30300e-01    -1.16615e+01
O       1.08960e+01    -5.09043e+00    -9.22654e-01
H       1.17394e+01    -5.09205e+00    -1.45017e+00
H       1.08045e+01    -4.13290e+00    -6.90729e-01
O       1.99800e+00     8.43378e+00    -8.78504e+00
H       2.23311e+00     8.76820e+00    -7.90186e+00
H       2.66639e+00     8.74952e+00    -9.40546e+00
O      -7.76584e+00     1.14270e+01    -8.92967e+00
H      -7.99636e+00     1.09269e+01    -8.10662e+00
H      -6.91342e+00     1.10460e+01    -9.05794e+00
O      -3.43771e+00    -5.10027e+00    -6.25368e+00
H      -2.60292e+00    -5.38961e+00    -5.92773e+00
H      -3.33417e+00    -4.94312e+00    -7.21734e+00
O       1.27821e+01    -3.16968e+00     8.37451e+00
H       1.37238e+01    -3.45210e+00     8.59038e+00
H       1.29035e+01    -2.74285e+00     7.49671e+00
O       4.41756e+00    -6.18996e+00     9.92367e+00
H       4.38167e+00    -7.07527e+00     1.03408e+01
H       4.20263e+00    -6.30598e+00     8.93682e+00
O      -2.02298e+00    -7.50015e+00    -2.68128e+00
H      -2.32288e+00    -8.40917e+00    -2.52085e+00
H      -1.06555e+00    -7.58979e+00    -2.63345e+00
O      -8.58723e+00    -9.89808e+00     1.33142e+00
H      -9.35779e+00    -1.04151e+01     1.62821e+00
H      -8.75658e+00    -9.90016e+00     3.61898e-01
O       1.06063e+01     1.21297e+01    -5.62981e+00
H       1.12372e+01     1.25580e+01    -5.03647e+00
H       9.95473e+00     1.27913e+01    -5.99718e+00
O       5.65600e+00    -9.03256e+00    -6.69740e-01
H       6.13859e+00    -8.54638e+00     2.25750e-02
H       4.94910e+00    -8.40087e+00    -1.00807e+00
O       9.05266e+00     3.88897e+00     1.00407e+01
H       9.66945e+00     3.12049e+00     1.01172e+01
H       8.64646e+00     3.83813e+00     9.18651e+00
O      -8.44874e+00     1.00186e+01    -6.58942e+00
H      -9.01393e+00     1.06197e+01    -6.04913e+00
H      -7.79012e+00     9.70293e+00    -5.93055e+00
O      -6.55121e+00     2.88208e+00    -6.80906e+00
H      -6.02930e+00     3.61085e+00    -6.48080e+00
H      -6.21235e+00     1.98777e+00    -6.63247e+00
O       4.55865e+00    -1.36522e+01    -5.58930e-01
H       5.03600e+00    -1.45346e+01    -6.99438e-01
H       4.58677e+00    -1.31192e+01    -1.38655e+00
O       5.65387e+00    -8.55068e+00     6.13412e+00
H       5.35232e+00    -7.76209e+00     6.64054e+00
H       6.67100e+00    -8.59786e+00     6.08700e+00
O      -7.09332e+00     9.41272e+00    -4.22352e+00
H      -6.88528e+00     8.47873e+00    -4.44100e+00
H      -6.24262e+00     9.79569e+00    -3.87810e+00
O       2.05093e+00    -1.34984e+00    -1.91791e+00
H       2.91168e+00    -1.79875e+00    -1.80694e+00
H       1.95952e+00    -6.82653e-01    -1.19566e+00
O      -9.96179e+00     6.24664e+00    -1.11047e+01
H      -1.06918e+01     5.70279e+00    -1.14869e+01
H      -1.04119e+01     6.92919e+00    -1.04795e+01
O       1.01804e+01     6.54054e+00     3.13543e+00
H       9.43238e+00     6.78674e+00     3.72239e+00
H       1.01927e+01     5.54897e+00     3.26834e+00
O       8.61190e+00     7.19059e+00     7.78461e+00
H       7.80456e+00     7.72934e+00     7.88528e+00
H       9.32218e+00     7.84116e+00     7.81450e+00
O       9.67822e+00    -4.38552e+00    -3.50232e+00
H       8.74384e+00    -4.48380e+00    -3.52526e+00
H       9.87736e+00    -4.75007e+00    -2.63571e+00
O      -1.97283e+00     4.93793e-01     1.01716e+01
H      -1.46672e+00     4.11201e-01     9.32215e+00
H      -1.32223e+00     2.30131e-01     1.07883e+01
O       1.17267e+01    -1.44907e+00     1.30492e+01
H       1.11306e+01    -2.04043e+00     1.24752e+01
H       1.25423e+01    -1.47862e+00     1.25208e+01
O       1.24466e+01    -2.00556e+00     5.71456e+00
H       1.30137e+01    -1.96507e+00     4.89524e+00
H       1.15907e+01    -2.27048e+00     5.31081e+00
O      -6.35500e+00     1.22869e-01     9.43589e+00
H      -5.46300e+00    -2.53032e-01     9.48797e+00
H      -6.96487e+00    -3.92613e-01     9.96444e+00
O      -5.53009e+00    -3.72402e+00     6.95813e+00
H      -5.25194e+00    -3.63518e+00     7.93078e+00
H      -6.40119e+00    -3.27155e+00     6.89899e+00
O      -9.83908e+00    -3.99070e+00    -5.11032e+00
H      -9.51416e+00    -4.65832e+00    -4.52875e+00
H      -1.02138e+01    -3.30536e+00    -4.37427e+00
O      -9.76321e+00    -6.52068e+00    -6.51822e-01
H      -9.33118e+00    -7.23985e+00    -1.20936e+00
H      -9.01303e+00    -5.89033e+00    -5.36951e-01
O      -1.01577e+01     4.68115e+00    -2.37656e+00
H      -1.09755e+01     4.58961e+00    -2.95073e+00
H      -9.60473e+00     3.93524e+00    -2.70863e+00
O       2.60434e+00     4.61011e+00     5.24645e-01
H       2.32679e+00     3.96439e+00    -1.76119e-01
H       3.54900e+00     4.31216e+00     5.76038e-01
O       1.16170e+01     6.90877e-01    -1.44486e+00
H       1.20440e+01     8.54955e-02    -7.61142e-01
H       1.12632e+01     1.48135e+00    -9.67145e-01
O       1.33294e+00    -2.38085e+00     2.92713e+00
H       1.19327e+00    -1.38658e+00     2.73943e+00
H       2.29294e+00    -2.29495e+00     3.00931e+00
O      -4.51925e+00     1.06306e+01    -3.61568e+00
H      -3.98339e+00     1.00328e+01    -4.18110e+00
H      -4.88123e+00     1.13277e+01    -4.25358e+00
O      -2.42375e+00     5.13407e+00    -3.01367e+00
H      -2.66875e+00     4.43276e+00    -3.69182e+00
H      -2.58732e+00     6.07008e+00    -3.30866e+00
O      -1.05268e+01     8.99251e+00     3.85137e+00
H      -1.04590e+01     9.51567e+00     4.67672e+00
H      -1.14942e+01     8.88457e+00     3.81843e+00
O      -6.55152e+00     5.37968e+00    -3.56233e+00
H      -6.20143e+00     6.11061e+00    -3.03462e+00
H      -7.32363e+00     5.79287e+00    -4.00102e+00
O      -1.22008e+01     1.21873e+01    -1.53787e+00
H      -1.12231e+01     1.18885e+01    -1.42527e+00
H      -1.24259e+01     1.24776e+01    -6.61446e-01
O       9.99467e+00    -1.02167e+01     9.07167e+00
H       9.42773e+00    -9.44733e+00     8.79148e+00
H       1.06521e+01    -1.05007e+01     8.46874e+00
O       1.81307e+00     9.30162e+00     9.64997e+00
H       2.59343e+00     9.85068e+00     9.41117e+00
H       1.22574e+00     9.67579e+00     8.98094e+00
O       6.12428e+00    -5.23235e+00     1.69138e+00
H       5.27037e+00    -4.77505e+00     1.55272e+00
H       6.69833e+00    -4.74493e+00     1.06675e+00
O       1.01218e+01    -2.85058e+00     1.12836e+01
H       1.00580e+01    -2.43532e+00     1.04068e+01
H       1.05730e+01    -3.76348e+00     1.11207e+01
O      -1.26492e+01     1.08706e-01     7.55467e+00
H      -1.17707e+01    -1.75697e-01     7.98850e+00
H      -1.25418e+01    -3.68014e-01     6.70886e+00
O      -1.22243e+01     4.13055e+00    -3.93824e+00
H      -1.21934e+01     3.48367e+00    -4.64821e+00
H      -1.29543e+01     4.68691e+00    -4.29904e+00
O      -9.49030e+00     7.55734e+00     1.10300e+01
H      -9.48059e+00     7.15458e+00     1.19319e+01
H      -8.97600e+00     7.00105e+00     1.04378e+01
O       8.79735e+00    -8.74992e+00     1.23465e+01
H       8.14825e+00    -8.80335e+00     1.16406e+01
H       9.65392e+00    -9.07032e+00     1.18833e+01
O       1.09954e+01    -5.12007e+00     8.09642e+00
H       1.16587e+01    -5.81330e+00     8.06986e+00
H       1.14605e+01    -4.32347e+00     8.41488e+00
O       8.35294e+00    -1.13154e+00     6.59277e+00
H       7.40556e+00    -1.36120e+00     6.50879e+00
H       8.79173e+00    -1.23095e+00     7.47227e+00
O      -2.60559e+00     6.72465e+00     4.81083e+00
H      -3.31293e+00     7.38739e+00     4.62775e+00
H      -1.80629e+00     7.24089e+00     4.64727e+00
O      -9.86362e+00    -1.09831e+01     8.93177e+00
H      -9.11183e+00    -1.05334e+01     8.44189e+00
H      -1.01328e+01    -1.03078e+01     9.60398e+00
O      -6.51913e+00     1.35936e+00     7.13203e+00
H      -7.29757e+00     1.95424e+00     7.16807e+00
H      -6.68004e+00     6.29518e-01     7.73202e+00
O      -6.96193e-01     1.31150e+01    -1.07247e+01
H      -3.07527e-01     1.30421e+01    -1.16940e+01
H      -4.58019e-01     1.40404e+01    -1.04561e+01
O       5.91354e-01    -7.87113e+00     5.74073e+00
H      -1.46188e-01    -7.22119e+00     5.68930e+00
H       1.40287e+00    -7.28663e+00     5.84330e+00
O       1.01814e+01    -6.91680e+00    -1.12421e+01
H       9.57787e+00    -7.64079e+00    -1.14114e+01
H       1.04785e+01    -6.52674e+00    -1.21156e+01
O      -3.29222e+00     2.83744e+00     1.04307e+01
H      -4.16902e+00     2.50564e+00     1.06498e+01
H      -2.79646e+00     2.04607e+00     1.02217e+01
O       9.21283e+00    -1.13006e+01     5.53744e+00
H       1.00646e+01    -1.15333e+01     5.87826e+00
H       9.42157e+00    -1.12309e+01     4.55151e+00
O       2.93734e+00     7.24748e+00     7.09579e+00
H       3.73473e+00     7.13481e+00     6.55132e+00
H       2.63461e+00     8.15411e+00     6.80479e+00
O       4.37328e+00    -1.05475e+01    -4.74422e+00
H       4.37720e+00    -1.09651e+01    -5.64226e+00
H       3.72329e+00    -9.79405e+00    -4.74332e+00
O      -8.52680e-01     5.72964e-02     7.69156e+00
H      -3.60242e-01    -7.39161e-01     7.52952e+00
H      -2.64439e-01     7.84864e-01     7.45124e+00
O      -4.90798e+00     9.46145e+00    -7.30678e+00
H      -5.35767e+00     1.02222e+01    -6.87033e+00
H      -4.82732e+00     9.72138e+00    -8.28554e+00
O       4.87961e-01     9.67002e+00     8.75882e-01
H      -1.40113e-01     9.35054e+00     1.56237e+00
H       1.30727e+00     9.98254e+00     1.39571e+00
O      -2.11556e+00     3.52524e+00    -8.17611e+00
H      -1.31333e+00     4.06008e+00    -8.51286e+00
H      -2.74455e+00     3.33942e+00    -8.91790e+00
O       3.33645e+00    -6.07903e+00     3.36390e+00
H       2.92773e+00    -6.30997e+00     2.52396e+00
H       4.05465e+00    -6.71768e+00     3.35744e+00
O       3.77156e+00     3.62193e+00    -3.24533e+00
H       3.12583e+00     4.23059e+00    -3.71283e+00
H       3.85750e+00     2.93164e+00    -3.95978e+00
O       2.11765e+00     5.70185e+00    -8.45023e+00
H       2.09831e+00     6.70050e+00    -8.39779e+00
H       2.90200e+00     5.46477e+00    -8.95045e+00
O      -5.08499e+00    -3.96176e+00     9.70878e+00
H      -4.16622e+00    -4.26421e+00     9.92154e+00
H      -4.91572e+00    -3.02207e+00     9.72736e+00
O      -7.73464e+00     8.48538e-02    -1.75295e+00
H      -8.12215e+00     9.10940e-01    -1.40554e+00
H      -7.46461e+00     4.24784e-01    -2.64526e+00
O      -6.07524e+00    -7.14169e+00    -9.53231e+00
H      -6.62217e+00    -6.81505e+00    -1.02934e+01
H      -6.66434e+00    -7.64743e+00    -8.91177e+00
O      -1.89968e+00    -1.07946e+01     7.17405e+00
H      -1.20081e+00    -1.01798e+01     7.59095e+00
H      -2.69027e+00    -1.02339e+01     7.07448e+00
O       1.11012e+01    -1.04023e+01     4.54206e-01
H       1.20465e+01    -1.06513e+01     7.42762e-01
H       1.08056e+01    -9.75120e+00     1.15473e+00
O      -5.28164e+00    -4.98017e-01    -9.60535e+00
H      -5.41810e+00     3.16078e-01    -1.01527e+01
H      -6.07785e+00    -5.75019e-01    -9.11475e+00
O       7.02121e+00    -1.52661e-01     2.33683e+00
H       7.74416e+00     4.98093e-01     2.49200e+00
H       7.51278e+00    -7.97756e-01     1.73895e+00
O       3.29269e-01    -5.61280e+00    -8.02022e+00
H      -3.99383e-01    -6.11772e+00    -8.27859e+00
H       1.00324e+00    -6.31745e+00    -8.15080e+00
O      -4.74252e+00    -5.74014e+00    -2.83687e+00
H      -3.84143e+00    -5.76073e+00    -2.43160e+00
H      -5.19778e+00    -6.55193e+00    -2.57356e+00
O       9.99303e+00     7.47208e+00    -3.65821e+00
H       9.06234e+00     7.22520e+00    -3.57108e+00
H       1.04890e+01     7.05719e+00    -2.89909e+00
O       7.39325e+00     3.57981e+00    -2.22193e+00
H       6.63019e+00     3.76986e+00    -1.61227e+00
H       7.43967e+00     2.63146e+00    -2.21420e+00
O      -6.26276e+00     8.31679e+00     6.19110e-02
H      -6.07015e+00     7.77471e+00    -8.01380e-01
H      -5.45470e+00     8.12071e+00     5.79221e-01
O       5.76416e+00    -2.83066e+00    -5.41881e+00
H       6.01356e+00    -3.02454e+00    -6.37587e+00
H       4.70799e+00    -2.78624e+00    -5.54333e+00
O       6.60203e+00    -2.05427e+00     4.05627e+00
H       6.87786e+00    -1.22684e+00     3.59307e+00
H       5.74361e+00    -2.27221e+00     3.56558e+00
O      -1.09788e+01     5.30798e-01    -3.37904e+00
H      -1.17518e+01     7.52751e-01    -2.77816e+00
H      -1.07506e+01    -4.24686e-01    -3.32108e+00
O       5.87913e+00    -1.99885e-01    -4.74588e+00
H       5.80787e+00    -1.21943e+00    -4.75225e+00
H       6.29697e+00     8.41059e-02    -5.58201e+00
O      -9.48209e+00    -1.02184e+01    -1.22254e+00
H      -9.40691e+00    -1.11704e+01    -1.41027e+00
H      -1.04150e+01    -9.85247e+00    -1.04901e+00
O      -1.57853e+00    -1.20189e+00     1.00125e+00
H      -1.63146e+00    -1.08563e+00     2.45741e-03
H      -2.41950e+00    -8.67366e-01     1.36810e+00
O       4.49294e+00    -1.09851e+01     6.61720e+00
H       4.84434e+00    -1.00704e+01     6.79409e+00
H       5.35153e+00    -1.15088e+01     6.75049e+00
O       7.49747e+00     8.75164e+00    -1.17148e-01
H       6.57787e+00     8.62505e+00    -3.12495e-01
H       7.84728e+00     9.22814e+00    -9.11126e-01
O      -6.26780e+00    -1.04004e+01    -1.25905e+01
H      -6.27542e+00    -1.12340e+01    -1.30954e+01
H      -5.52159e+00    -1.05371e+01    -1.19611e+01
O       8.81729e-01     2.14959e-01    -8.51773e+00
H       9.41947e-01     1.16572e+00    -8.85657e+00
H       1.96859e-01    -1.96136e-01    -9.07114e+00
O      -1.09533e+00    -8.71337e+00    -6.42536e+00
H      -4.26561e-01    -9.33490e+00    -6.11770e+00
H      -9.87966e-01    -7.82849e+00    -6.02277e+00
O      -5.43577e+00     1.18864e+01    -5.78181e+00
H      -5.92614e+00     1.26326e+01    -5.46263e+00
H      -4.51653e+00     1.20953e+01    -6.04010e+00
O       9.33055e+00     1.43358e+00     2.26091e+00
H       9.63558e+00     1.94173e+00     1.52305e+00
H       9.11449e+00     2.08406e+00     2.95473e+00
O      -9.78513e+00    -4.42861e+00     1.34564e+01
H      -1.05013e+01    -4.33777e+00     1.41367e+01
H      -9.46925e+00    -3.50060e+00     1.31566e+01
O      -1.17445e+01    -4.71764e+00     2.72426e+00
H      -1.27583e+01    -4.56896e+00     2.74994e+00
H      -1.17324e+01    -5.28759e+00     1.91836e+00
O      -5.56013e+00     2.10135e+00     1.13010e+01
H      -5.92793e+00     1.42073e+00     1.07114e+01
H      -5.65359e+00     1.91942e+00     1.22481e+01
O       7.00946e+00     3.96559e+00     1.19261e+01
H       7.87521e+00     3.84114e+00     1.15889e+01
H       6.35764e+00     4.08030e+00     1.12082e+01
O       7.90697e+00    -4.20707e+00    -3.20133e-01
H       8.60486e+00    -4.63841e+00     1.67709e-01
H       7.94783e+00    -3.26663e+00     1.81709e-02
O       1.22759e+01     2.12531e+00    -8.28668e+00
H       1.21530e+01     3.04189e+00    -8.10933e+00
H       1.25990e+01     1.64601e+00    -7.43982e+00
O       9.28097e+00     6.83812e+00     6.85479e-01
H       8.57807e+00     7.46555e+00     5.52690e-01
H       9.54926e+00     6.73494e+00     1.59221e+00
O       6.82486e+00     1.23782e+01     6.63787e+00
H       7.53159e+00     1.26312e+01     6.00317e+00
H       7.46155e+00     1.21707e+01     7.39724e+00
O      -9.98038e+00    -6.92681e+00     9.70011e+00
H      -1.03796e+01    -7.78818e+00     1.00523e+01
H      -9.08233e+00    -7.17138e+00     9.42791e+00
O       1.08667e+01    -2.49484e+00     1.10343e-01
H       1.17122e+01    -1.99957e+00     1.00211e-01
H       1.08450e+01    -2.94604e+00     9.76860e-01
O       2.85952e-01     1.97685e+00     3.67319e+00
H       3.13002e-01     2.86895e+00     3.19952e+00
H      -5.71733e-01     1.99997e+00     4.12124e+00
O       1.08232e+01     8.80900e+00     7.90647e+00
H       1.12019e+01     9.57913e+00     8.50193e+00
H       1.15421e+01     8.15043e+00     7.74305e+00
O      -6.99114e+00    -1.07112e+01    -4.17518e+00
H      -6.45159e+00    -1.07341e+01    -3.34034e+00
H      -6.66183e+00    -9.89782e+00    -4.67830e+00
O      -9.31585e+00     9.18661e+00     7.99334e+00
H      -9.17680e+00     9.87764e+00     8.67890e+00
H      -1.00918e+01     8.66896e+00     8.31042e+00
O       2.72853e+00    -1.01088e+01     2.82258e+00
H       2.53630e+00    -1.08468e+01     3.45880e+00
H       1.80069e+00    -9.80516e+00     2.49041e+00
O      -5.13203e+00    -1.03004e+01    -1.89456e+00
H      -4.13632e+00    -1.02470e+01    -1.81484e+00
H      -5.31325e+00    -1.09301e+01    -1.18635e+00
O      -1.08863e+00     1.13063e+01    -6.34548e-01
H      -7.86003e-01     1.22499e+01    -7.87100e-01
H      -3.65490e-01     1.08881e+01    -1.13046e-01
O       9.94985e+00    -1.05826e+00     8.92925e+00
H       9.61541e+00    -1.38030e-01     9.22003e+00
H       1.08828e+01    -7.52023e-01     8.63755e+00
O       1.46321e+00     3.51205e+00    -6.49159e+00
H       1.54603e+00     4.20781e+00    -7.18884e+00
H       6.01694e-01     3.08452e+00    -6.70718e+00
O      -1.21198e+01     1.52554e+00    -5.50733e+00
H      -1.30407e+01     1.68171e+00    -5.28523e+00
H      -1.16101e+01     1.20848e+00    -4.71794e+00
O      -8.64939e+00     1.12503e+01     9.54870e+00
H      -8.91600e+00     1.21214e+01     9.15093e+00
H      -9.11853e+00     1.12449e+01     1.03638e+01
O      -5.42340e+00     1.24778e+01     2.18483e-01
H      -6.00616e+00     1.16964e+01     1.86713e-01
H      -4.57818e+00     1.20965e+01     5.29608e-01
O       1.15873e+01     8.45732e+00    -1.15492e+01
H       1.10833e+01     7.59845e+00    -1.15931e+01
H       1.09655e+01     9.12839e+00    -1.11940e+01
O      -1.43221e-01    -5.63700e-02    -6.00202e+00
H       5.65097e-01    -2.41488e-01    -5.30320e+00
H       2.67385e-01    -2.62613e-02    -6.83995e+00
O       1.09798e+01    -5.55155e+00     1.12296e+01
H       1.08420e+01    -5.89751e+00     1.03121e+01
H       1.20051e+01    -5.51370e+00     1.12470e+01
O       5.71709e+00     4.16238e+00     9.54818e+00
H       5.39506e+00     3.20239e+00     9.49637e+00
H       4.93081e+00     4.71192e+00     9.38802e+00
O      -5.44818e+00    -9.66392e-01    -3.44900e-01
H      -6.29765e+00    -6.07210e-01    -6.79326e-01
H      -5.51976e+00    -1.92341e+00    -6.24630e-01
O      -1.81925e+00    -3.90158e+00    -2.67691e+00
H      -2.52627e+00    -3.64136e+00    -3.30343e+00
H      -2.21158e+00    -4.45865e+00    -1.99476e+00
O       1.15896e+01     3.97440e-01     3.50097e+00
H       1.08678e+01     8.34899e-01     3.03299e+00
H       1.21959e+01     3.25082e-01     2.71532e+00
O       1.28477e+01     3.21253e+00     1.76462e+00
H       1.26535e+01     3.29030e+00     2.73786e+00
H       1.35579e+01     3.84908e+00     1.49257e+00
O      -4.26395e+00     1.05292e+01    -1.22820e+01
H      -4.47287e+00     9.67354e+00    -1.26013e+01
H      -4.89700e+00     1.10229e+01    -1.28331e+01
O       6.86542e+00    -7.83042e+00     1.54300e+00
H       6.50703e+00    -6.93657e+00     1.55462e+00
H       6.32266e+00    -8.26553e+00     2.27455e+00
O       5.39560e+00     1.06885e+01    -6.71487e+00
H       6.07746e+00     1.05865e+01    -7.40784e+00
H       5.86881e+00     1.07651e+01    -5.85337e+00
O      -3.61136e+00    -4.28574e+00    -8.94500e+00
H      -3.39208e+00    -3.34784e+00    -8.75404e+00
H      -4.55228e+00    -4.33641e+00    -8.75621e+00
O       6.27203e+00    -7.30197e-01    -1.10042e+01
H       5.93090e+00     2.05672e-01    -1.09519e+01
H       5.72042e+00    -1.27358e+00    -1.04166e+01
O       2.79653e+00    -1.37251e+00     5.70116e+00
H       2.78466e+00    -4.58509e-01     5.27122e+00
H       2.02479e+00    -1.43819e+00     6.27996e+00
O       2.11924e+00    -5.49529e+00    -3.19079e+00
H       2.03550e+00    -5.38339e+00    -4.17890e+00
H       1.49956e+00    -4.79514e+00    -2.75149e+00
O       8.08097e+00     7.06051e+00     4.94126e+00
H       7.93374e+00     8.03483e+00     4.80164e+00
H       8.22193e+00     6.97511e+00     5.88201e+00
O      -9.18427e+00    -9.93107e+00     5.46360e+00
H      -9.25399e+00    -9.21259e+00     4.74087e+00
H      -1.00756e+01    -9.82972e+00     5.88684e+00
O       5.33134e+00     8.38329e+00    -3.77781e+00
H       4.69190e+00     7.98839e+00    -4.42749e+00
H       5.87822e+00     9.12082e+00    -4.23497e+00
O      -9.81163e+00    -8.59079e-01    -9.88708e+00
H      -9.08220e+00    -8.88554e-01    -9.21365e+00
H      -1.05615e+01    -1.25327e+00    -9.45209e+00
O      -1.93288e+00    -2.62880e+00     1.15260e+01
H      -1.31737e+00    -1.84914e+00     1.15598e+01
H      -1.99511e+00    -2.86523e+00     1.06169e+01
O      -8.45163e+00    -2.31285e+00    -1.17592e+01
H      -7.61726e+00    -2.69536e+00    -1.13359e+01
H      -8.70276e+00    -1.63300e+00    -1.11218e+01
O      -1.35876e-01    -7.92543e-01     1.19394e+01
H      -1.56423e-01    -9.34684e-01     1.29317e+01
H       7.58232e-01    -7.90854e-01     1.16198e+01
O       7.63681e+00     9.72106e+00     4.67393e+00
H       7.59367e+00     9.98810e+00     3.75668e+00
H       8.56479e+00     9.99032e+00     4.90034e+00
O       2.04340e+00    -5.23848e+00    -5.92340e+00
H       1.26701e+00    -5.52775e+00    -6.45441e+00
H       2.82784e+00    -5.69399e+00    -6.34632e+00
O      -5.78584e+00    -1.20563e+01     4.51954e+00
H      -5.89106e+00    -1.14086e+01     3.77782e+00
H      -5.07026e+00    -1.27133e+01     4.43756e+00
O       5.08649e+00    -3.20999e-01     1.10121e+01
H       5.57785e+00    -3.89877e-01     1.18498e+01
H       5.31357e+00    -1.17523e+00     1.05727e+01
O       7.07254e+00    -9.37978e+00    -4.78445e+00
H       6.14998e+00    -9.66736e+00    -4.89909e+00
H       7.10455e+00    -8.46864e+00    -5.07575e+00
O      -7.23847e+00     4.41374e+00     1.10400e+01
H      -7.41922e+00     4.73041e+00     1.19220e+01
H      -6.78611e+00     3.56999e+00     1.11479e+01
O      -2.53558e+00    -4.65537e+00     9.65181e+00
H      -2.52918e+00    -5.35537e+00     1.03630e+01
H      -2.23675e+00    -5.19460e+00     8.80324e+00
O       4.68519e+00    -5.75435e+00    -7.15831e+00
H       4.35504e+00    -6.51120e+00    -7.72599e+00
H       5.34519e+00    -5.23098e+00    -7.64022e+00
O      -8.09199e+00     2.38480e+00    -3.12140e-01
H      -7.51932e+00     2.56573e+00     5.64979e-01
H      -8.86934e+00     2.94167e+00    -2.13080e-01
O      -1.71331e+00    -6.82784e+00     8.23767e+00
H      -2.37376e+00    -7.38628e+00     8.73340e+00
H      -1.97303e+00    -6.92183e+00     7.29532e+00
O       7.25476e+00     4.36034e+00     4.84958e+00
H       7.26192e+00     5.27009e+00     4.52146e+00
H       7.12670e+00     4.43472e+00     5.82564e+00
O      -3.30559e+00    -8.37974e-01     6.99149e+00
H      -2.40071e+00    -4.27984e-01     7.14651e+00
H      -3.78358e+00    -6.43870e-03     6.73333e+00
O      -8.60346e+00     7.58140e+00    -7.76845e+00
H      -9.05109e+00     8.38494e+00    -7.39822e+00
H      -8.48176e+00     7.69863e+00    -8.74403e+00
O       9.23655e+00    -2.95421e+00    -8.01429e+00
H       9.01733e+00    -2.11811e+00    -8.49011e+00
H       9.59449e+00    -3.57751e+00    -8.67791e+00
O      -1.11981e+00    -7.91604e+00    -9.04142e+00
H      -2.06087e+00    -8.11568e+00    -9.21663e+00
H      -9.05818e-01    -8.27597e+00    -8.13189e+00
O       8.34083e+00    -1.69428e+00     4.12082e-01
H       9.27103e+00    -1.70920e+00     4.51878e-02
H       7.79128e+00    -1.21542e+00    -2.41955e-01
O       7.13626e+00     1.00640e+01    -8.90558e+00
H       7.48513e+00     1.09726e+01    -8.95182e+00
H       7.86612e+00     9.54033e+00    -8.55924e+00
O       8.10547e-01     6.97513e+00     1.03747e+01
H       1.45144e-02     7.20935e+00     9.89863e+00
H       1.28188e+00     7.79191e+00     1.02151e+01
O      -8.04987e-01     2.26704e+00    -1.22549e+01
H      -7.91784e-01     2.95835e+00    -1.29464e+01
H      -1.27058e+00     1.52831e+00    -1.26242e+01
O       2.60216e+00     1.02915e+01     3.00018e+00
H       3.39725e+00     1.06570e+01     2.61332e+00
H       2.50002e+00     9.29713e+00     2.89908e+00
O      -2.92263e+00     7.75214e+00    -3.53123e+00
H      -2.87788e+00     8.09358e+00    -4.49725e+00
H      -2.30764e+00     8.35796e+00    -3.05718e+00
O      -1.20457e+01    -9.61786e+00     3.85133e+00
H      -1.23278e+01    -9.53682e+00     4.79512e+00
H      -1.25030e+01    -8.90519e+00     3.27094e+00
O      -1.10395e+01     1.35858e+01     1.68172e+00
H      -1.11741e+01     1.39341e+01     2.55757e+00
H      -1.07929e+01     1.26120e+01     1.77236e+00
O       7.27573e+00     6.47593e+00    -3.60110e+00
H       6.63425e+00     7.28483e+00    -3.74415e+00
H       6.99865e+00     6.18459e+00    -2.72269e+00
O      -5.91262e+00    -5.95189e+00    -5.33947e+00
H      -5.10201e+00    -5.81217e+00    -5.84223e+00
H      -5.61464e+00    -5.82980e+00    -4.45676e+00
O       1.14507e+01     1.04875e+01     9.69393e+00
H       1.17384e+01     1.13977e+01     9.61030e+00
H       1.21902e+01     9.97592e+00     1.01083e+01
O       7.05739e+00     2.47988e+00    -8.51227e+00
H       7.29998e+00     1.73227e+00    -7.97130e+00
H       6.38288e+00     2.10869e+00    -9.18565e+00
O       1.49305e+00    -6.66136e+00     1.48994e+00
H       8.68531e-01    -7.24279e+00     2.01509e+00
H       1.13305e+00    -5.77807e+00     1.37420e+00
O       6.55314e+00    -3.81788e+00    -7.83269e+00
H       6.10401e+00    -3.51006e+00    -8.65802e+00
H       7.49652e+00    -3.62569e+00    -7.94004e+00
O      -9.29595e+00    -7.94226e+00     3.74169e+00
H      -8.60651e+00    -7.25244e+00     3.87268e+00
H      -9.18772e+00    -8.29189e+00     2.86283e+00
O      -6.02307e+00     3.08969e+00    -2.19104e+00
H      -6.67663e+00     2.74639e+00    -1.54843e+00
H      -6.37066e+00     3.85697e+00    -2.65495e+00
O      -5.26599e+00     6.13892e-01    -6.51110e+00
H      -5.75925e+00    -1.82500e-01    -6.77378e+00
H      -4.31239e+00     4.16964e-01    -6.52545e+00
O       9.74468e+00     1.43855e+00    -9.02312e+00
H       1.05341e+01     1.68802e+00    -8.54717e+00
H       9.03162e+00     2.07939e+00    -8.90929e+00
O      -4.25193e+00     8.43252e+00     3.87196e+00
H      -5.04440e+00     8.16786e+00     4.33278e+00
H      -3.90559e+00     9.24469e+00     4.28569e+00
O      -9.30931e+00    -4.07068e+00     4.83140e+00
H      -9.94966e+00    -4.73711e+00     5.13973e+00
H      -9.79223e+00    -3.38054e+00     4.27825e+00
O      -1.22113e+01    -1.13014e+01    -4.12926e+00
H      -1.13240e+01    -1.14110e+01    -4.44368e+00
H      -1.22277e+01    -1.15331e+01    -3.11422e+00
O       7.86905e+00    -1.18752e+01    -8.93257e+00
H       7.99953e+00    -1.13439e+01    -8.13973e+00
H       7.46180e+00    -1.12984e+01    -9.61431e+00
O       3.77222e+00    -3.15639e+00     3.78069e+00
H       3.39020e+00    -4.06874e+00     3.85292e+00
H       3.58329e+00    -2.74565e+00     4.62703e+00
O      -9.06047e-01    -7.89416e+00    -1.27939e+01
H      -1.64875e+00    -7.23946e+00    -1.25784e+01
H      -4.77896e-01    -7.65878e+00    -1.36803e+01
O       3.98577e-01     8.13015e+00    -1.10256e+01
H       5.76373e-01     8.35706e+00    -1.00830e+01
H       1.41667e-01     8.91002e+00    -1.15563e+01
O      -3.23160e-01     4.33592e+00     7.75592e+00
H       4.63257e-02     3.51878e+00     7.41538e+00
H      -5.31209e-02     4.96140e+00     7.07108e+00
O      -2.77329e+00    -7.09468e-01    -6.30039e+00
H      -1.80959e+00    -4.77745e-01    -6.16014e+00
H      -2.94227e+00    -1.42528e+00    -5.67727e+00
O       2.39919e+00     1.50907e+00     9.26565e+00
H       2.33265e+00     7.95819e-01     9.94401e+00
H       2.38015e+00     2.34730e+00     9.76236e+00
O       1.35698e+01     8.33770e+00    -9.60356e+00
H       1.28612e+01     8.34675e+00    -1.03243e+01
H       1.41039e+01     9.14302e+00    -9.87779e+00
O       7.58292e+00    -3.31390e+00     1.22731e+01
H       8.47993e+00    -3.12759e+00     1.20353e+01
H       7.26048e+00    -2.52699e+00     1.27731e+01
O       6.04797e+00     5.74405e+00    -6.12358e+00
H       6.61948e+00     5.91271e+00    -5.28839e+00
H       6.65749e+00     5.72390e+00    -6.90017e+00
O       5.88027e-01    -3.56896e+00    -1.83908e+00
H       9.49812e-01    -2.73254e+00    -2.16164e+00
H      -3.61850e-01    -3.61026e+00    -2.04218e+00
O       2.11009e+00     1.19735e+01    -1.05963e+00
H       2.90047e+00     1.14680e+01    -7.40232e-01
H       2.17824e+00     1.28313e+01    -6.39061e-01
O      -9.02181e+00     2.02792e+00     7.37787e+00
H      -9.24730e+00     2.96355e+00     7.24896e+00
H      -9.30857e+00     1.57931e+00     6.56326e+00
O       4.19647e+00    -8.61830e+00     1.13980e+01
H       3.57250e+00    -9.31211e+00     1.11767e+01
H       5.06166e+00    -9.00548e+00     1.11589e+01
O       1.30646e+01    -1.19081e+00     6.65768e-02
H       1.32111e+01    -4.29800e-01     6.99674e-01
H       1.39058e+01    -1.46135e+00    -2.85002e-01
O      -2.23731e+00    -1.24062e+01    -3.18346e+00
H      -2.07508e+00    -1.21940e+01    -4.10252e+00
H      -2.91894e+00    -1.31441e+01    -3.22116e+00
O       2.02390e+00    -4.45152e-01    -4.52852e+00
H       2.66947e+00     2.95463e-01    -4.61333e+00
H       1.97290e+00    -7.10569e-01    -3.55023e+00
O      -1.77306e+00     1.17476e+01     8.95595e+00
H      -1.84997e+00     1.26266e+01     8.49344e+00
H      -9.83268e-01     1.13763e+01     8.56266e+00
O       1.00603e+01    -1.08167e+01     2.99959e+00
H       1.09325e+01    -1.05507e+01     3.32236e+00
H       1.02081e+01    -1.13837e+01     2.17310e+00
O      -9.82760e+00     4.42776e+00     2.75055e-01
H      -9.35288e+00     5.33800e+00     5.08157e-01
H      -9.94447e+00     4.63058e+00    -6.91235e-01
O      -8.44988e+00    -1.23535e+01     4.50363e+00
H      -7.46563e+00    -1.22893e+01     4.64192e+00
H      -8.79989e+00    -1.15099e+01     4.80420e+00
O      -9.38687e-01     2.43238e+00    -6.06014e+00
H      -7.31677e-01     1.43265e+00    -5.95141e+00
H      -1.37932e+00     2.55112e+00    -6.92934e+00
O       4.97601e+00    -1.00701e+01    -9.20672e+00
H       4.16207e+00    -1.04475e+01    -9.63568e+00
H       5.65304e+00    -1.01327e+01    -9.92505e+00
O      -1.05585e+00     8.61944e+00     2.88405e+00
H      -1.53972e+00     8.15089e+00     2.15848e+00
H      -3.53007e-01     8.00269e+00     3.05560e+00
O       9.30156e+00     1.09264e+01     1.12853e+01
H       9.43755e+00     1.07973e+01     1.22159e+01
H       1.00550e+01     1.07334e+01     1.06939e+01
O       8.31332e+00    -8.19023e+00     8.85670e+00
H       8.39067e+00    -7.20282e+00     8.90051e+00
H       8.10818e+00    -8.36898e+00     7.92107e+00
O       1.39872e+00    -1.23766e+01     4.10708e+00
H       1.33574e+00    -1.31822e+01     3.55332e+00
H       2.32150e+00    -1.25168e+01     4.40912e+00
O       3.80954e+00    -6.64210e+00    -1.17600e+00
H       3.63411e+00    -5.89032e+00    -5.21107e-01
H       3.49298e+00    -6.37336e+00    -2.03345e+00
O      -1.01044e+01    -1.34087e+01    -1.28184e+01
H      -1.06824e+01    -1.26169e+01    -1.25916e+01
H      -1.07834e+01    -1.41367e+01    -1.30066e+01
O      -3.05647e+00     3.77149e+00     7.92670e+00
H      -2.10633e+00     3.86472e+00     7.75270e+00
H      -3.15715e+00     3.54862e+00     8.89746e+00
O      -3.59726e+00    -9.57402e+00    -6.93513e+00
H      -3.71114e+00    -9.48174e+00    -7.91244e+00
H      -2.70751e+00    -9.17133e+00    -6.68265e+00
O      -5.81347e+00     7.33562e-01    -3.67359e+00
H      -5.51457e+00     7.33280e-01    -4.59587e+00
H      -5.88368e+00     1.68011e+00    -3.33329e+00
O      -3.05495e+00     6.50638e+00     7.45518e+00
H      -2.94113e+00     6.50780e+00     6.44488e+00
H      -3.05783e+00     5.56125e+00     7.70695e+00
O      -9.86413e+00     5.09235e-01    -6.83078e+00
H      -9.62971e+00     1.43923e+00    -6.68340e+00
H      -1.07150e+01     2.35623e-01    -6.52080e+00
O       6.67388e+00     5.92966e+00    -1.06386e+01
H       6.77668e+00     5.40917e+00    -1.14754e+01
H       6.74801e+00     6.88627e+00    -1.08842e+01
O       8.12977e-01     1.88715e+00     7.14856e+00
H       1.35106e+00     1.85060e+00     8.00655e+00
H       1.42617e+00     1.52912e+00     6.44269e+00
O      -9.57389e+00     1.11067e+01     2.12584e+00
H      -1.00017e+01     1.02702e+01     2.52230e+00
H      -9.18739e+00     1.15067e+01     2.96517e+00
O       2.50899e+00     1.39068e+01    -1.01175e+01
H       2.02290e+00     1.38159e+01    -9.28137e+00
H       2.11227e+00     1.46839e+01    -1.06302e+01
O       1.60895e+00     9.51628e+00     5.56201e+00
H       9.37094e-01     9.00856e+00     5.10480e+00
H       2.22576e+00     9.80214e+00     4.85367e+00
O       4.80071e+00     1.29316e+00     8.25104e-01
H       3.88469e+00     9.58017e-01     8.72608e-01
H       5.31618e+00     7.47918e-01     1.48011e+00
O       8.42301e+00    -8.56962e+00     6.11468e+00
H       8.78319e+00    -9.45260e+00     5.88864e+00
H       8.87568e+00    -7.95729e+00     5.46785e+00
O       7.56937e+00     4.45792e+00     7.43511e+00
H       6.85220e+00     4.39420e+00     8.15655e+00
H       7.89186e+00     5.38262e+00     7.57945e+00
O       5.26842e+00    -1.21381e+01    -2.69233e+00
H       4.93211e+00    -1.18038e+01    -3.61061e+00
H       5.88350e+00    -1.14429e+01    -2.37884e+00
O       2.19438e+00    -1.13738e+01     7.91499e+00
H       2.99451e+00    -1.11872e+01     7.41050e+00
H       1.59656e+00    -1.05832e+01     7.80677e+00
O       3.51447e-01    -8.73179e+00     2.73438e+00
H       7.05430e-01    -8.83403e+00     3.63148e+00
H      -4.62331e-01    -9.31035e+00     2.70408e+00
O       6.30170e+00    -5.10739e-01    -1.07268e+00
H       5.72509e+00    -4.86533e-02    -4.29726e-01
H       6.64215e+00     1.62885e-01    -1.73917e+00
O      -9.52395e+00    -2.09443e+00    -1.05511e+00
H      -8.82946e+00    -1.41980e+00    -1.18062e+00
H      -9.13650e+00    -2.90022e+00    -6.99959e-01
O      -4.55221e+00     1.11319e+01     8.50288e+00
H      -3.60699e+00     1.12871e+01     8.83903e+00
H      -4.50512e+00     1.01721e+01     8.29856e+00
O       1.12796e+01    -2.12337e+00    -3.91398e+00
H       1.15227e+01    -2.03345e+00    -4.85816e+00
H       1.06981e+01    -2.86171e+00    -3.80111e+00
O      -5.98720e+00     2.44186e+00     1.44700e+00
H      -5.27193e+00     2.17072e+00     8.64748e-01
H      -5.99008e+00     3.40277e+00     1.56877e+00
O       7.49495e+00     3.75981e-01    -6.83823e+00
H       8.41301e+00     3.90851e-01    -6.36204e+00
H       7.63520e+00    -2.25129e-01    -7.67030e+00
O      -4.04587e+00     4.44236e+00    -9.80472e-01
H      -3.37260e+00     4.44466e+00    -1.71418e+00
H      -4.59396e+00     3.66682e+00    -1.19216e+00
O      -8.61396e+00    -8.17411e+00    -2.20219e+00
H      -8.97781e+00    -7.82788e+00    -3.06456e+00
H      -8.97771e+00    -9.17198e+00    -2.15826e+00
O      -4.70455e+00     8.51366e+00     8.37461e+00
H      -4.02785e+00     7.90396e+00     7.97979e+00
H      -5.55787e+00     8.14463e+00     7.97605e+00
O      -2.07784e+00     4.33974e+00     8.90330e-01
H      -2.83297e+00     4.45327e+00     3.08672e-01
H      -2.50814e+00     4.22694e+00     1.78955e+00
O       1.07704e+01     2.55540e+00     2.46638e-01
H       1.16347e+01     2.75087e+00     7.81553e-01
H       1.03236e+01     3.40791e+00    -1.47520e-01
O       1.94102e+00     1.30662e+01    -3.44620e+00
H       2.03073e+00     1.26845e+01    -2.54029e+00
H       2.87883e+00     1.33365e+01    -3.66710e+00
O      -5.76954e+00    -3.36648e+00    -1.78998e+00
H      -5.21258e+00    -4.13703e+00    -1.99711e+00
H      -5.85016e+00    -2.95055e+00    -2.65716e+00
O       1.09222e-01     1.27241e+01     1.13376e+01
H       9.63648e-02     1.17482e+01     1.12442e+01
H       1.06664e+00     1.30267e+01     1.11833e+01
O       4.26103e+00     1.29215e+01    -7.22965e+00
H       4.64026e+00     1.34992e+01    -7.93181e+00
H       4.76671e+00     1.20772e+01    -7.21892e+00
O       3.97936e+00    -7.62261e+00    -8.95519e+00
H       3.94601e+00    -7.32574e+00    -9.89665e+00
H       4.43633e+00    -8.47209e+00    -9.00264e+00
O      -9.13982e+00    -1.09265e+01    -8.00781e+00
H      -8.61921e+00    -1.16259e+01    -8.44602e+00
H      -9.34977e+00    -1.12176e+01    -7.09971e+00
O      -1.05472e+01    -1.00301e+01    -1.00691e+01
H      -1.13241e+01    -9.44805e+00    -9.73721e+00
H      -1.01695e+01    -1.04263e+01    -9.28845e+00
O       8.21107e+00     3.70810e+00    -4.78361e+00
H       7.43395e+00     3.33218e+00    -5.22463e+00
H       7.78961e+00     3.96786e+00    -3.93836e+00
O       5.40570e+00    -1.50815e+00     6.64476e+00
H       4.43678e+00    -1.59163e+00     6.62210e+00
H       5.60533e+00    -1.73376e+00     5.73693e+00
O      -7.57912e+00     3.21299e+00    -9.34317e+00
H      -8.48666e+00     2.87642e+00    -9.33379e+00
H      -7.06698e+00     3.00412e+00    -8.49519e+00
O       4.72924e+00    -8.25401e+00     3.68383e+00
H       4.08367e+00    -8.96320e+00     3.46546e+00
H       5.13052e+00    -8.45537e+00     4.56347e+00
O       1.38629e+01     8.88783e+00    -4.20497e+00
H       1.33088e+01     8.86033e+00    -5.01146e+00
H       1.43665e+01     8.04170e+00    -4.27009e+00
O      -4.03511e+00    -1.30224e+00     9.50487e+00
H      -3.36435e+00    -8.10193e-01     1.00593e+01
H      -3.72546e+00    -1.22584e+00     8.57372e+00
O      -3.90146e+00     1.40677e+00    -5.81213e-02
H      -4.38041e+00     6.23235e-01    -1.49338e-01
H      -3.39448e+00     1.52054e+00    -8.62009e-01
O      -1.77092e+00    -1.01215e+01    -1.40139e+01
H      -1.38719e+00    -9.38058e+00    -1.34540e+01
H      -1.28786e+00    -1.09467e+01    -1.39887e+01
O       5.21718e+00     8.43491e+00    -1.18988e+00
H       4.41273e+00     7.96149e+00    -7.73639e-01
H       5.24909e+00     8.35212e+00    -2.13980e+00
O       1.38622e+01    -2.32432e+00    -3.35443e+00
H       1.41849e+01    -2.30859e+00    -2.35948e+00
H       1.28769e+01    -2.38048e+00    -3.39110e+00
O      -1.75644e+00     7.12066e+00     7.46199e-01
H      -1.70445e+00     6.15525e+00     7.25385e-01
H      -1.05967e+00     7.39194e+00     5.52640e-02
O      -2.86099e+00     9.31643e+00    -5.63748e+00
H      -2.05099e+00     9.76548e+00    -5.92752e+00
H      -3.52662e+00     9.40618e+00    -6.35138e+00
O       3.16805e+00    -4.06698e+00    -1.15521e+01
H       2.38851e+00    -4.03786e+00    -1.09508e+01
H       3.22497e+00    -5.04337e+00    -1.16293e+01
O       3.69758e+00     9.26341e+00    -1.06669e+01
H       3.55750e+00     1.01949e+01    -1.09414e+01
H       4.64696e+00     9.05137e+00    -1.06786e+01
O      -4.14235e+00     7.97207e+00     1.10113e+01
H      -3.94606e+00     7.06074e+00     1.13467e+01
H      -4.56563e+00     7.98872e+00     1.01199e+01
O      -4.15898e+00     1.77722e+00     6.54897e+00
H      -3.60770e+00     2.31123e+00     7.14993e+00
H      -5.12626e+00     1.87377e+00     6.83093e+00
O      -1.14853e+01     9.23036e+00     1.11197e+01
H      -1.20370e+01     8.86167e+00     1.18591e+01
H      -1.07638e+01     8.64304e+00     1.09902e+01
O       9.05578e+00    -6.43314e+00    -7.04361e+00
H       9.59125e+00    -6.11197e+00    -6.30335e+00
H       8.09415e+00    -6.57136e+00    -6.78164e+00
O      -7.06776e+00    -5.48069e+00     1.05564e+01
H      -6.32510e+00    -4.82839e+00     1.05897e+01
H      -7.30540e+00    -5.69507e+00     1.15065e+01
O      -8.94395e+00     6.53829e+00    -4.25862e+00
H      -9.48833e+00     5.89180e+00    -3.72947e+00
H      -9.08236e+00     6.21870e+00    -5.17847e+00
O       1.32479e+01     7.53102e+00     8.05500e+00
H       1.29566e+01     7.03262e+00     8.88535e+00
H       1.35202e+01     6.79272e+00     7.46580e+00
O       1.09560e+01     9.14492e+00     7.14388e-01
H       1.13306e+01     9.21896e+00    -2.18733e-01
H       1.03934e+01     8.37589e+00     5.75400e-01
O       8.65484e+00     1.59684e+00     5.75380e+00
H       8.58562e+00     6.26108e-01     5.90874e+00
H       7.75309e+00     1.81191e+00     6.18028e+00
O      -9.92113e+00     1.84540e+00    -1.00451e+01
H      -9.66890e+00     9.27571e-01    -1.03106e+01
H      -1.05606e+01     1.61954e+00    -9.34211e+00
O      -6.46813e+00     7.31330e+00    -6.06859e+00
H      -7.23043e+00     7.38144e+00    -6.72962e+00
H      -5.88329e+00     7.98421e+00    -6.46073e+00
O       4.98242e+00     9.92616e+00     5.58794e+00
H       4.42835e+00     1.05356e+01     5.06593e+00
H       5.90479e+00     1.02074e+01     5.52673e+00
O       5.69438e+00     1.90312e+00     1.37227e+01
H       4.72918e+00     2.18094e+00     1.36673e+01
H       6.13901e+00     2.53757e+00     1.30819e+01
O      -9.12820e+00     9.80213e+00    -1.07559e+01
H      -8.64544e+00     1.03991e+01    -1.02246e+01
H      -9.43268e+00     1.04393e+01    -1.14794e+01
O       3.09486e+00    -6.96655e+00    -1.13458e+01
H       3.53910e+00    -7.46508e+00    -1.20513e+01
H       2.17849e+00    -7.42495e+00    -1.12502e+01
O      -4.20900e+00    -9.71385e+00     7.26966e+00
H      -4.64606e+00    -1.05930e+01     7.40753e+00
H      -4.12745e+00    -9.23735e+00     8.07649e+00
O       4.30067e+00     1.16994e+01     1.10571e+01
H       4.27608e+00     1.12777e+01     1.01978e+01
H       3.67501e+00     1.13694e+01     1.16933e+01
O       7.45122e+00     1.04682e+00    -2.89833e+00
H       8.19500e+00     4.81642e-01    -2.91066e+00
H       6.94008e+00     7.47133e-01    -3.68525e+00
O      -1.00336e+01    -7.20935e+00    -4.24298e+00
H      -9.41052e+00    -7.01061e+00    -4.94838e+00
H      -1.07179e+01    -7.81092e+00    -4.61191e+00
O      -4.34314e+00     7.08524e+00     1.49935e+00
H      -4.16240e+00     7.54189e+00     2.34289e+00
H      -3.45180e+00     7.00511e+00     1.08903e+00
O      -2.76289e+00    -1.76666e+00    -8.83703e+00
H      -2.64278e+00    -1.42763e+00    -7.88983e+00
H      -3.56304e+00    -1.26403e+00    -9.06990e+00
O       1.09321e+01     2.45684e+00     7.19398e+00
H       1.00459e+01     2.23060e+00     6.81950e+00
H       1.12437e+01     1.51447e+00     7.42504e+00
O       3.02219e+00    -2.82044e+00    -5.75182e+00
H       2.64824e+00    -2.08431e+00    -5.17772e+00
H       2.56204e+00    -3.69153e+00    -5.76099e+00
O       1.15375e+01     9.67990e+00    -1.92919e+00
H       1.24230e+01     9.21674e+00    -2.17411e+00
H       1.18955e+01     1.06038e+01    -1.89462e+00
O      -1.10750e+01    -6.26471e+00     5.07798e+00
H      -1.15194e+01    -5.69155e+00     4.42475e+00
H      -1.04936e+01    -6.77527e+00     4.46728e+00
O      -8.91953e+00     2.17286e+00    -3.18079e+00
H      -9.56733e+00     1.46235e+00    -3.31215e+00
H      -8.77354e+00     2.44541e+00    -4.10414e+00
O      -3.27993e+00     4.43705e+00     3.33764e+00
H      -2.92018e+00     5.13953e+00     3.91362e+00
H      -2.66389e+00     3.68130e+00     3.49953e+00
O       4.49254e-01    -3.79235e+00     5.40369e+00
H       8.50137e-01    -3.28694e+00     4.68687e+00
H      -5.41574e-01    -3.98273e+00     5.11688e+00
O       2.81648e+00     7.42279e+00    -1.23875e+01
H       3.03608e+00     8.18476e+00    -1.18010e+01
H       1.86047e+00     7.52114e+00    -1.23297e+01
O       7.13171e+00    -4.63095e+00    -4.06333e+00
H       6.59091e+00    -4.73502e+00    -3.26358e+00
H       6.66673e+00    -3.87454e+00    -4.50178e+00
O       3.84445e+00    -4.25401e+00     3.85240e-01
H       2.88002e+00    -4.13504e+00     6.55043e-01
H       3.97449e+00    -3.50716e+00    -2.56356e-01
O      -5.96200e+00     4.87384e+00     4.48281e+00
H      -5.90330e+00     5.75935e+00     4.78632e+00
H      -4.97881e+00     4.65194e+00     4.26782e+00
O       3.18438e+00     7.67940e+00     2.81460e+00
H       2.60638e+00     6.94846e+00     3.09398e+00
H       4.05507e+00     7.67039e+00     3.33638e+00
1500
24.662 0.000 0.000 0.000 24.662 0.000 0.000 0.000 24.662
O       1.08749e+01     9.84878e+00    -9.90573e+00
H       1.01245e+01     9.51628e+00    -9.29546e+00
H       1.14069e+01     1.03583e+01    -9.32681e+00
O       1.35902e+01    -5.10317e+00     1.10545e+01
H       1.41033e+01    -5.81659e+00     1.05891e+01
H       1.41399e+01    -4.72983e+00     1.17839e+01
O       8.09409e+00    -6.45308e+00     5.35351e+00
H       8.32175e+00    -5.62554e+00     4.87869e+00
H       8.38336e+00    -6.34420e+00     6.30976e+00
O       5.12848e+00     9.80205e+00     8.91647e+00
H       5.40902e+00     1.01897e+01     8.03247e+00
H       5.92729e+00     9.25325e+00     9.17609e+00
O       5.58838e+00    -4.62114e+00     5.70145e+00
H       5.80635e+00    -3.90010e+00     6.27836e+00
H       6.40996e+00    -4.82158e+00     5.27608e+00
O      -3.86312e+00    -2.49744e+00     5.15218e+00
H      -3.43083e+00    -1.74330e+00     5.70814e+00
H      -4.51897e+00    -3.00194e+00     5.72359e+00
O       1.16875e+01     2.42867e+00     4.70402e+00
H       1.15519e+01     2.49147e+00     5.67069e+00
H       1.17358e+01     1.52365e+00     4.46121e+00
O      -3.27354e+00     5.41565e+00     1.18568e+01
H      -3.23358e+00     5.14080e+00     1.08667e+01
H      -2.41615e+00     5.78286e+00     1.20240e+01
O       6.93550e+00    -9.82651e+00     1.05326e+01
H       7.33443e+00    -9.59079e+00     9.62494e+00
H       7.21033e+00    -1.07390e+01     1.06758e+01
O       9.84197e+00     1.15971e+01     1.68935e+00
H       9.52737e+00     1.21194e+01     9.26695e-01
H       1.03590e+01     1.08204e+01     1.24834e+00
O      -6.11755e-01    -1.06785e+01    -6.64055e-01
H       8.52315e-02    -1.00612e+01    -8.72607e-01
H      -1.01406e+00    -1.03754e+01     1.80088e-01
O      -1.86474e+00    -1.01887e+01     1.82992e+00
H      -2.73867e+00    -9.83285e+00     2.01861e+00
H      -1.56975e+00    -1.06985e+01     2.60242e+00
O       2.98063e+00     3.41200e+00     1.34545e+01
H       3.15316e+00     4.23847e+00     1.39731e+01
H       3.05748e+00     3.73402e+00     1.25168e+01
O       1.05786e+01     5.47382e+00    -1.05955e+01
H       1.03542e+01     5.79983e+00    -1.14743e+01
H       9.94938e+00     5.69877e+00    -9.89187e+00
O       1.36210e+01    -7.06277e+00     6.06463e-01
H       1.45062e+01    -6.83397e+00     3.12632e-01
H       1.37959e+01    -7.67195e+00     1.40996e+00
O       5.68361e+00     2.18177e+00    -6.84449e+00
H       6.07251e+00     2.98316e+00    -6.30893e+00
H       6.08243e+00     2.10327e+00    -7.71365e+00
O       2.74988e+00    -1.07219e+01     1.04203e+01
H       2.79383e+00    -1.14565e+01     1.10326e+01
H       2.88241e+00    -1.10845e+01     9.55300e+00
O      -7.51863e-01    -5.73061e+00    -5.04500e+00
H      -8.88917e-01    -5.23873e+00    -4.17286e+00
H      -2.74260e-01    -6.57924e+00    -4.71887e+00
O      -3.32044e+00     1.12284e+01     3.34990e+00
H      -2.51252e+00     1.15742e+01     3.81191e+00
H      -3.07696e+00     1.14249e+01     2.37567e+00
O      -1.18015e+01    -8.79892e+00    -4.81227e+00
H      -1.18237e+01    -9.77875e+00    -4.59242e+00
H      -1.19444e+01    -8.28931e+00    -3.99080e+00
O      -5.92531e+00    -6.85048e+00     6.33375e+00
H      -5.67876e+00    -5.85445e+00     6.50977e+00
H      -5.04922e+00    -7.22212e+00     6.13053e+00
O      -1.22540e+01    -3.56166e+00     9.25537e+00
H      -1.17349e+01    -3.45465e+00     8.40983e+00
H      -1.17076e+01    -4.22539e+00     9.72302e+00
O      -1.03264e+01     1.84320e+00     9.02510e+00
H      -1.00971e+01     1.89862e+00     9.95721e+00
H      -1.03958e+01     8.94689e-01     8.67901e+00
O       1.21525e+01    -1.21274e+01     8.57200e+00
H       1.30184e+01    -1.19920e+01     8.82874e+00
H       1.21086e+01    -1.22531e+01     7.57977e+00
O       1.01636e+01    -8.07458e+00     1.91745e+00
H       9.61220e+00    -8.45830e+00     2.63767e+00
H       9.82543e+00    -7.20110e+00     1.68502e+00
O      -8.38206e+00     1.05066e+01    -4.32785e+00
H      -7.51698e+00     1.00801e+01    -4.15230e+00
H      -9.12922e+00     9.96508e+00    -3.92881e+00
O       2.81977e+00    -1.91548e+00    -8.49857e+00
H       2.43796e+00    -9.73126e-01    -8.67825e+00
H       2.94638e+00    -1.87785e+00    -7.51130e+00
O      -7.48012e+00     5.90123e+00     9.54414e-01
H      -7.04608e+00     6.79891e+00     6.53216e-01
H      -6.82324e+00     5.46221e+00     1.49826e+00
O      -5.40732e-01     6.13816e+00    -1.25037e+01
H      -3.87031e-01     5.62446e+00    -1.16617e+01
H      -2.14342e-01     7.06578e+00    -1.23708e+01
O       1.00133e+00    -7.45006e+00    -3.25783e+00
H       1.12120e+00    -8.02100e+00    -2.50015e+00
H       1.53963e+00    -6.66447e+00    -3.01836e+00
O      -1.18829e+01     3.69998e+00     8.27924e+00
H      -1.26908e+01     3.23333e+00     7.98476e+00
H      -1.12681e+01     3.00458e+00     8.66185e+00
O      -5.88617e+00    -2.29321e+00    -4.39186e+00
H      -6.03803e+00    -2.37698e+00    -5.34256e+00
H      -5.67661e+00    -1.31946e+00    -4.28919e+00
O      -6.36354e+00     7.96121e+00     4.81940e+00
H      -7.11388e+00     7.78043e+00     4.15851e+00
H      -6.84686e+00     7.99188e+00     5.70472e+00
O       5.67274e+00    -4.43205e+00    -2.67213e+00
H       4.91068e+00    -5.02217e+00    -2.68810e+00
H       5.95758e+00    -4.44339e+00    -1.75459e+00
O       1.01879e+01    -4.43295e+00     2.82241e+00
H       9.23166e+00    -4.49321e+00     3.04974e+00
H       1.04120e+01    -3.59160e+00     3.30538e+00
O       1.00069e+01     6.12379e+00     1.15768e+01
H       9.64845e+00     5.24624e+00     1.13147e+01
H       1.06521e+01     6.24000e+00     1.08762e+01
O      -3.43395e+00    -1.22952e+01    -7.01596e+00
H      -2.49577e+00    -1.24945e+01    -7.04766e+00
H      -3.47789e+00    -1.14145e+01    -7.46850e+00
O       1.17391e+01     4.95940e+00    -2.97969e+00
H       1.11471e+01     4.82936e+00    -2.26087e+00
H       1.14694e+01     4.33814e+00    -3.70535e+00
O      -1.03636e+01     1.05418e+01     5.70569e+00
H      -9.54260e+00     1.09761e+01     5.37417e+00
H      -1.02459e+01     1.02990e+01     6.65504e+00
O       9.33775e+00    -1.08253e+01    -6.41857e+00
H       8.59319e+00    -1.05325e+01    -5.78968e+00
H       9.89907e+00    -1.00212e+01    -6.42426e+00
O       4.18775e+00    -9.47010e+00    -1.85284e+00
H       4.48978e+00    -8.92528e+00    -1.11047e+00
H       3.82528e+00    -1.02972e+01    -1.50364e+00
O      -1.56985e+00     8.83348e+00     9.29074e+00
H      -2.34902e+00     8.53818e+00     9.76490e+00
H      -1.78179e+00     9.71761e+00     9.02838e+00
O      -5.63827e+00    -7.57974e+00    -1.23996e+00
H      -5.38824e+00    -8.52711e+00    -1.24693e+00
H      -6.58348e+00    -7.50008e+00    -1.43956e+00
O      -7.90275e+00    -8.27828e+00    -7.99297e+00
H      -7.14697e+00    -8.60286e+00    -7.47224e+00
H      -8.25872e+00    -9.07991e+00    -8.42039e+00
O      -7.70054e+00     3.37922e-01     2.52265e+00
H      -7.56456e+00    -6.19082e-01     2.41360e+00
H      -6.88921e+00     6.72420e-01     2.02517e+00
O       2.24970e+00    -5.04047e+00     1.05793e+01
H       2.29392e+00    -4.71227e+00     1.15155e+01
H       2.95888e+00    -5.72530e+00     1.04890e+01
O       1.07011e+01     9.86500e-01    -3.61349e+00
H       1.09376e+01     2.03402e-01    -4.14064e+00
H       1.11261e+01     7.62356e-01    -2.70397e+00
O       1.03028e+01     1.00088e+01     5.29201e+00
H       1.04757e+01     9.34651e+00     6.00987e+00
H       1.07467e+01     9.59696e+00     4.49229e+00
O       8.36461e-01    -8.44949e+00    -1.10386e+01
H       5.43086e-01    -8.10483e+00    -1.01750e+01
H       2.15115e-01    -8.01981e+00    -1.16943e+01
O      -1.09724e+01    -9.09022e+00     1.07683e+01
H      -1.04058e+01    -9.07308e+00     1.15660e+01
H      -1.18120e+01    -8.96574e+00     1.11805e+01
O       8.68805e+00     1.18372e+01     8.78480e+00
H       9.17700e+00     1.26107e+01     9.03917e+00
H       8.95105e+00     1.11757e+01     9.53038e+00
O      -5.33073e+00    -4.77845e+00     2.17455e+00
H      -6.07332e+00    -5.12079e+00     2.77374e+00
H      -5.10058e+00    -3.91625e+00     2.58122e+00
O      -1.37253e+01    -8.75131e+00    -6.73786e+00
H      -1.31811e+01    -8.63311e+00    -5.97775e+00
H      -1.41780e+01    -7.90332e+00    -7.02281e+00
O       8.64967e+00    -8.58559e+00     3.98725e+00
H       7.94126e+00    -8.38218e+00     3.31781e+00
H       8.63291e+00    -7.74893e+00     4.51464e+00
O      -1.10841e+01     8.69081e+00    -6.83619e+00
H      -1.11920e+01     8.70444e+00    -7.80650e+00
H      -1.20173e+01     8.98545e+00    -6.52203e+00
O       2.42041e+00    -3.11375e+00     8.77843e+00
H       3.28388e+00    -2.88848e+00     8.45183e+00
H       2.52741e+00    -3.96698e+00     9.30648e+00
O       1.10217e+01    -9.59813e+00     1.18785e+01
H       1.08293e+01    -1.01010e+01     1.10481e+01
H       1.15436e+01    -1.02410e+01     1.24290e+01
O       5.60424e+00     3.75212e+00    -8.57297e-01
H       5.41591e+00     2.79649e+00    -5.99644e-01
H       5.01742e+00     3.89922e+00    -1.55910e+00
O      -1.13745e+01    -3.91411e+00    -6.97440e+00
H      -1.19929e+01    -3.09088e+00    -7.02890e+00
H      -1.04403e+01    -3.52824e+00    -6.84783e+00
O       7.60877e+00    -4.31195e+00     3.67686e+00
H       7.47161e+00    -3.36854e+00     3.42633e+00
H       6.86406e+00    -4.79025e+00     3.28283e+00
O       8.30390e+00     8.20511e+00     1.23554e+01
H       8.82738e+00     7.46576e+00     1.19860e+01
H       8.87923e+00     8.99524e+00     1.24859e+01
O      -7.03371e+00     1.09563e+01     1.49959e-01
H      -6.81014e+00     9.97556e+00     2.05823e-01
H      -7.70149e+00     1.09423e+01     8.87534e-01
O       1.05489e+01    -5.04684e+00    -9.69421e+00
H       1.00672e+01    -5.51036e+00    -1.04666e+01
H       1.02645e+01    -5.59220e+00    -8.91600e+00
O      -7.16171e-01     1.14704e+00    -1.31085e+00
H      -1.69050e-01     1.91309e+00    -1.57289e+00
H      -1.34806e+00     1.15801e+00    -2.02068e+00
O       6.68330e+00    -4.93564e+00     9.52428e+00
H       5.95266e+00    -5.42258e+00     9.79549e+00
H       7.19979e+00    -4.69066e+00     1.03346e+01
O       1.29459e+01    -9.92418e+00     5.45465e+00
H       1.23052e+01    -1.06907e+01     5.38749e+00
H       1.25805e+01    -9.18759e+00     5.98672e+00
O      -6.70344e+00    -4.19985e+00     1.41146e-01
H      -6.33965e+00    -3.74991e+00    -6.28263e-01
H      -5.97081e+00    -4.44972e+00     6.81548e-01
O       1.57563e+00     1.40657e+01    -6.87883e+00
H       8.73744e-01     1.40599e+01    -6.14074e+00
H       2.43199e+00     1.36044e+01    -6.55475e+00
O       4.11666e+00    -1.32690e+01     4.52486e+00
H       4.55104e+00    -1.33293e+01     3.64839e+00
H       4.31489e+00    -1.24434e+01     5.00623e+00
O       2.63282e+00     7.59539e+00     1.99246e-02
H       2.74223e+00     8.17958e+00     8.10969e-01
H       2.85737e+00     6.61645e+00     1.42847e-01
O      -1.19853e+01    -1.33466e+01    -8.25894e+00
H      -1.25788e+01    -1.31543e+01    -7.47418e+00
H      -1.20489e+01    -1.25231e+01    -8.76896e+00
O       1.28330e+01    -8.86749e+00    -1.67979e+00
H       1.29143e+01    -8.20069e+00    -9.59170e-01
H       1.20526e+01    -9.45263e+00    -1.43195e+00
O      -6.26941e+00     1.18269e+01     1.05995e+01
H      -7.14713e+00     1.14447e+01     1.04459e+01
H      -5.69148e+00     1.14447e+01     9.87937e+00
O       2.17491e+00    -7.93279e+00    -7.25611e+00
H       2.90230e+00    -7.78854e+00    -7.90569e+00
H       1.72323e+00    -8.72897e+00    -7.56184e+00
O       9.49923e+00     1.02631e+00    -6.68387e+00
H       8.74298e+00     5.23780e-01    -6.29716e+00
H       9.43876e+00     1.81980e+00    -6.12518e+00
O      -2.31731e+00    -4.71112e+00    -3.57503e-01
H      -1.38575e+00    -4.88215e+00    -2.29363e-01
H      -2.84355e+00    -5.44057e+00     7.51577e-02
O      -8.38952e+00     1.23128e+01    -2.07330e+00
H      -8.16632e+00     1.18013e+01    -2.88761e+00
H      -8.07390e+00     1.17252e+01    -1.30910e+00
O       8.11989e+00    -1.03035e+01    -2.32832e+00
H       7.82577e+00    -9.56086e+00    -1.74602e+00
H       8.09933e+00    -9.94924e+00    -3.25756e+00
O       1.31770e+01     5.36609e+00    -8.03988e+00
H       1.23260e+01     5.47503e+00    -7.58424e+00
H       1.32870e+01     6.24041e+00    -8.51613e+00
O      -4.96267e+00     5.10158e+00    -5.64059e+00
H      -4.92751e+00     6.09202e+00    -5.84599e+00
H      -5.55114e+00     5.15141e+00    -4.83987e+00
O      -8.93352e+00    -1.18858e+01    -5.42840e+00
H      -8.71381e+00    -1.27364e+01    -4.95483e+00
H      -8.37520e+00    -1.11833e+01    -5.03256e+00
O      -1.01797e+01     1.52447e+00    -1.30267e+01
H      -1.00223e+01     1.72771e+00    -1.20587e+01
H      -1.10917e+01     1.18714e+00    -1.30139e+01
O      -1.14119e+01     4.10346e+00    -1.22181e+01
H      -1.19628e+01     3.58319e+00    -1.15990e+01
H      -1.06683e+01     3.54083e+00    -1.24331e+01
O      -4.42592e+00    -2.30691e+00     2.55004e+00
H      -3.45853e+00    -2.42101e+00     2.21817e+00
H      -4.37151e+00    -1.98300e+00     3.48403e+00
O       4.84878e+00    -2.46118e+00    -1.03002e+01
H       4.39974e+00    -2.85171e+00    -1.10479e+01
H       4.07533e+00    -2.36364e+00    -9.65053e+00
O      -8.96992e+00    -8.81047e+00    -1.19786e+01
H      -8.11500e+00    -9.28487e+00    -1.22176e+01
H      -9.24747e+00    -9.24951e+00    -1.11220e+01
O       7.47434e+00     1.00615e+01     2.13845e+00
H       7.50352e+00     9.61121e+00     1.28271e+00
H       8.23046e+00     1.07133e+01     2.01440e+00
O       9.75585e+00    -1.19397e+01    -7.81696e-01
H       9.34261e+00    -1.12499e+01    -1.36248e+00
H       1.05474e+01    -1.14581e+01    -4.46279e-01
O      -1.51968e-01     5.06599e+00    -9.68758e+00
H       2.98214e-01     4.21003e+00    -9.69087e+00
H       3.22114e-01     5.65226e+00    -9.08604e+00
O      -3.15877e+00    -2.57684e+00    -4.85329e+00
H      -4.02192e+00    -2.70295e+00    -4.47876e+00
H      -3.05324e+00    -3.47419e+00    -5.35437e+00
O      -2.01021e+00    -2.82579e+00     1.63974e+00
H      -1.64599e+00    -1.95793e+00     1.27645e+00
H      -2.24201e+00    -3.33996e+00     8.43714e-01
O      -4.99145e+00     6.73449e+00    -1.89966e+00
H      -4.35018e+00     6.14987e+00    -1.32643e+00
H      -4.40081e+00     7.24626e+00    -2.47643e+00
O       9.56218e+00     3.90324e+00     3.58100e+00
H       8.74096e+00     3.93529e+00     4.17410e+00
H       1.02402e+01     3.43418e+00     4.16620e+00
O       7.46530e-01     1.07814e+01     1.23546e+01
H       4.57768e-02     1.05875e+01     1.30238e+01
H       7.21588e-01     1.00054e+01     1.17277e+01
O       2.67892e+00     8.86640e-01     2.84999e-01
H       2.31529e+00     1.75095e+00    -9.60381e-03
H       1.98103e+00     4.89179e-01     8.09827e-01
O       9.21020e+00    -6.03123e+00    -9.41430e-04
H       8.76611e+00    -6.75308e+00    -4.06490e-01
H       9.89217e+00    -5.67310e+00    -6.42343e-01
O       1.11874e+01    -1.11452e+01    -9.80650e+00
H       1.12965e+01    -1.02455e+01    -9.45402e+00
H       1.02752e+01    -1.14209e+01    -9.51981e+00
O      -5.80275e-01    -1.69941e+00     1.41946e+01
H      -1.40666e+00    -1.70070e+00     1.47980e+01
H      -9.04665e-02    -2.43243e+00     1.45636e+01
O      -5.37099e-01     9.73550e+00    -2.88289e+00
H      -7.23681e-01     1.04491e+01    -2.16763e+00
H       1.13065e-01     1.00896e+01    -3.53367e+00
O      -1.17797e+01    -7.48549e+00     7.10714e+00
H      -1.09238e+01    -7.41060e+00     7.66167e+00
H      -1.14645e+01    -7.15144e+00     6.19089e+00
O       7.30955e+00     1.04423e+01    -4.02150e+00
H       8.17379e+00     1.04335e+01    -3.55253e+00
H       6.76810e+00     1.11673e+01    -3.61350e+00
O       2.05135e+00    -5.88790e+00     5.19210e+00
H       2.51659e+00    -6.15970e+00     4.43737e+00
H       1.76426e+00    -4.98538e+00     5.04933e+00
O       8.95923e+00    -1.01175e+00    -1.04956e+01
H       9.07284e+00    -1.04076e-01    -1.00576e+01
H       8.16760e+00    -8.57133e-01    -1.10571e+01
O      -9.40963e+00     5.35578e+00    -6.36606e+00
H      -8.69210e+00     5.82989e+00    -6.85881e+00
H      -1.03023e+01     5.43114e+00    -6.89014e+00
O       1.01555e+01     4.71918e+00    -1.00879e+00
H       1.00182e+01     5.60628e+00    -6.02102e-01
H       9.28757e+00     4.42722e+00    -1.29250e+00
O       9.62548e-01     6.34229e+00     3.84761e+00
H       1.12038e+00     5.61479e+00     3.16487e+00
H       6.54595e-01     5.85311e+00     4.65655e+00
O       3.22339e+00     9.69390e+00    -6.11558e+00
H       3.39029e+00     8.72569e+00    -6.03721e+00
H       4.08341e+00     1.01206e+01    -6.15419e+00
O      -6.54119e+00    -2.69096e+00    -6.92456e+00
H      -6.26470e+00    -3.45029e+00    -7.47824e+00
H      -7.50002e+00    -2.89664e+00    -6.67736e+00
O       7.11269e-01     5.70071e+00    -2.28349e+00
H      -2.45290e-01     5.56319e+00    -2.61436e+00
H       5.54053e-01     6.44976e+00    -1.65074e+00
O      -7.11789e+00    -6.14987e+00     3.64475e+00
H      -6.72870e+00    -6.56238e+00     4.46940e+00
H      -7.81578e+00    -5.51020e+00     3.94433e+00
O       1.37724e+01    -5.08179e+00    -2.13001e+00
H       1.45569e+01    -5.10657e+00    -1.52399e+00
H       1.41323e+01    -5.78540e+00    -2.70164e+00
O       1.20771e+00    -3.87342e+00    -9.54596e+00
H       1.09622e+00    -4.73162e+00    -8.96655e+00
H       1.75244e+00    -3.19123e+00    -9.02030e+00
O      -5.16776e+00     1.57258e+00    -1.12470e+01
H      -5.74748e+00     2.15053e+00    -1.06959e+01
H      -4.29068e+00     2.06113e+00    -1.11571e+01
O       4.15280e-01    -4.37891e+00     1.98335e-01
H       5.93525e-01    -3.88929e+00    -6.02468e-01
H       6.06603e-01    -3.73634e+00     9.35261e-01
O      -2.66213e+00    -1.26927e+01     9.57606e-01
H      -2.38199e+00    -1.18391e+01     1.26238e+00
H      -1.92721e+00    -1.30881e+01     4.03753e-01
O      -2.10132e+00    -6.68474e+00     5.66783e+00
H      -2.71755e+00    -7.32127e+00     5.29479e+00
H      -2.17067e+00    -5.78692e+00     5.27772e+00
O      -6.37251e+00    -4.47875e+00    -8.89537e+00
H      -6.34619e+00    -5.40944e+00    -9.27422e+00
H      -6.36260e+00    -3.83211e+00    -9.65087e+00
O      -8.54256e+00     2.89814e+00    -6.08202e+00
H      -7.53838e+00     2.89481e+00    -6.03128e+00
H      -8.74011e+00     3.83763e+00    -6.29448e+00
O      -6.45117e+00    -1.03359e+01     1.62218e+00
H      -7.44749e+00    -1.04854e+01     1.48829e+00
H      -6.10890e+00    -1.09362e+01     9.77416e-01
O       4.47977e-01    -7.25785e+00     9.37224e+00
H       1.01744e+00    -6.47917e+00     9.57692e+00
H      -2.61535e-01    -6.94646e+00     8.73208e+00
O      -1.16438e+01    -4.73695e+00    -9.58694e+00
H      -1.15803e+01    -4.50188e+00    -8.68122e+00
H      -1.26044e+01    -4.90469e+00    -9.70739e+00
O       1.07050e+00     5.62480e+00     6.75570e+00
H       6.71819e-01     6.48284e+00     7.02948e+00
H       1.93657e+00     5.53455e+00     7.21547e+00
O      -9.25228e+00     6.66763e-01     4.48257e+00
H      -9.60004e+00     1.54805e+00     4.22367e+00
H      -8.50093e+00     5.88713e-01     3.81848e+00
O       4.92076e+00     1.33335e+00     9.59522e+00
H       4.86140e+00     7.98383e-01     1.03917e+01
H       3.91134e+00     1.38831e+00     9.41332e+00
O      -7.90758e+00    -6.32672e+00    -1.19958e+01
H      -8.53254e+00    -7.13313e+00    -1.21392e+01
H      -8.45310e+00    -5.50020e+00    -1.18174e+01
O      -1.07303e+01    -3.10569e+00     2.93975e+00
H      -1.09821e+01    -3.99306e+00     2.49162e+00
H      -9.99613e+00    -2.67942e+00     2.47769e+00
O       4.14791e+00    -6.50297e+00     6.89563e+00
H       4.85350e+00    -5.91081e+00     6.59135e+00
H       3.28990e+00    -6.30939e+00     6.49664e+00
O      -6.75599e+00     7.75078e+00    -1.01709e+01
H      -7.38769e+00     8.29948e+00    -1.06767e+01
H      -6.77748e+00     6.93029e+00    -1.06731e+01
O       4.53226e+00     6.61129e+00     1.08283e+01
H       3.83819e+00     7.03313e+00     1.13239e+01
H       4.07365e+00     6.58862e+00     9.95071e+00
O       6.91570e+00     8.19648e+00     1.01175e+01
H       7.23140e+00     8.42614e+00     1.10213e+01
H       6.23494e+00     7.51138e+00     1.03392e+01
O      -8.59077e+00     6.91131e+00     3.09042e+00
H      -8.31787e+00     6.51231e+00     2.16065e+00
H      -9.31952e+00     7.56179e+00     3.12144e+00
O       8.76689e-01     4.46840e+00     2.21305e+00
H       1.65512e+00     4.45954e+00     1.69733e+00
H       1.66174e-01     4.52571e+00     1.56336e+00
O      -2.14525e+00     2.05169e+00     4.59272e+00
H      -2.56758e+00     1.99106e+00     5.49695e+00
H      -2.70002e+00     1.47704e+00     4.00357e+00
O      -7.50941e+00    -8.00056e+00     8.52782e+00
H      -7.62796e+00    -8.84365e+00     8.02979e+00
H      -7.02201e+00    -7.48115e+00     7.89165e+00
O      -7.78405e+00    -1.05753e+01     7.56830e+00
H      -7.01904e+00    -1.11098e+01     7.45790e+00
H      -8.04490e+00    -1.05281e+01     6.62437e+00
O       3.49764e+00     5.82837e+00    -1.02680e+01
H       4.50082e+00     6.03345e+00    -1.02304e+01
H       3.13822e+00     6.53384e+00    -1.08763e+01
O      -1.80395e+00    -4.23225e+00     4.23901e+00
H      -1.82282e+00    -4.00873e+00     3.31464e+00
H      -2.51264e+00    -3.60871e+00     4.56071e+00
O       3.29318e+00     2.25973e+00    -5.31739e+00
H       4.09171e+00     2.13737e+00    -5.86675e+00
H       2.63682e+00     2.74375e+00    -5.85242e+00
O      -3.35910e+00    -9.18259e+00     9.16209e+00
H      -4.10994e+00    -8.67367e+00     9.56793e+00
H      -2.94362e+00    -9.75198e+00     9.90402e+00
O       1.38029e+01     4.02848e-01     1.89649e+00
H       1.45319e+01     1.28849e-01     2.51081e+00
H       1.39307e+01     1.38855e+00     1.67971e+00
O      -5.01117e+00     9.94999e+00    -9.51583e+00
H      -5.43437e+00     9.11088e+00    -9.70948e+00
H      -4.74366e+00     1.03480e+01    -1.03724e+01
O       1.16627e+01    -5.63763e+00    -5.66099e+00
H       1.12895e+01    -5.16030e+00    -4.90492e+00
H       1.23307e+01    -5.09485e+00    -6.17566e+00
O       8.19457e-01     2.55189e+00    -1.01398e+01
H       3.62731e-01     2.44012e+00    -1.10162e+01
H       1.77905e+00     2.79553e+00    -1.04459e+01
O       2.13813e+00    -9.00153e-01     1.07096e+01
H       3.08333e+00    -1.06307e+00     1.10471e+01
H       1.98337e+00    -1.65659e+00     1.00978e+01
O       1.01344e+00    -2.14454e+00     6.95471e+00
H       1.44603e+00    -2.75856e+00     7.65183e+00
H       8.07590e-01    -2.71504e+00     6.11154e+00
O      -8.35748e+00     6.17240e+00     8.87085e+00
H      -7.80929e+00     5.42926e+00     9.25021e+00
H      -9.04170e+00     5.78609e+00     8.25659e+00
O       2.91525e+00     3.96802e+00     1.09402e+01
H       2.06569e+00     4.33626e+00     1.06884e+01
H       3.51837e+00     4.34589e+00     1.02826e+01
O      -1.01789e+01    -6.14168e-01     8.39833e+00
H      -9.59429e+00    -8.82890e-01     7.67878e+00
H      -9.88519e+00    -1.08054e+00     9.18184e+00
O       7.85619e+00    -6.63842e+00    -5.98283e+00
H       7.98288e+00    -5.79575e+00    -5.57256e+00
H       7.06149e+00    -6.46127e+00    -6.63372e+00
O      -3.26470e+00    -6.86872e+00    -1.29265e+01
H      -4.06942e+00    -7.25660e+00    -1.33022e+01
H      -3.58091e+00    -6.15481e+00    -1.23554e+01
O      -2.77284e+00     3.86299e+00    -4.62974e+00
H      -2.05993e+00     3.67187e+00    -5.27913e+00
H      -3.53899e+00     4.18859e+00    -5.08638e+00
O      -8.99254e+00    -4.23986e+00     8.83801e+00
H      -8.47613e+00    -4.96998e+00     9.22405e+00
H      -8.45119e+00    -3.97722e+00     8.03406e+00
O       1.21328e+01     1.21212e+01     5.70025e+00
H       1.14019e+01     1.14785e+01     5.78522e+00
H       1.29251e+01     1.16093e+01     5.58837e+00
O      -4.07759e+00    -8.25288e+00     5.02132e+00
H      -4.20590e+00    -8.51345e+00     4.10786e+00
H      -3.91513e+00    -9.12032e+00     5.51798e+00
O      -5.21561e+00     5.10108e+00     2.08330e+00
H      -4.50049e+00     5.68123e+00     1.80015e+00
H      -4.92515e+00     4.86065e+00     2.97797e+00
O       6.17503e+00     9.12626e+00    -1.05902e+01
H       6.89414e+00     9.28078e+00    -1.12324e+01
H       6.35768e+00     9.58875e+00    -9.70831e+00
O       4.76742e+00     3.03702e+00     6.46776e+00
H       5.18719e+00     2.15788e+00     6.66178e+00
H       5.40927e+00     3.54963e+00     5.93037e+00
O       7.37897e+00    -1.22747e+01     1.17955e+01
H       6.61639e+00    -1.29490e+01     1.17109e+01
H       8.07469e+00    -1.27838e+01     1.22618e+01
O       5.05824e-01     4.44980e+00     1.05711e+01
H       4.61941e-02     5.14979e+00     1.10939e+01
H       9.87283e-02     4.20869e+00     9.68771e+00
O       6.18942e+00     9.08345e-01     7.27163e+00
H       5.96290e+00     9.50971e-01     8.21763e+00
H       5.88587e+00     9.82962e-03     7.05105e+00
O      -3.73649e+00    -4.73267e+00    -1.16078e+01
H      -3.07942e+00    -4.06916e+00    -1.19681e+01
H      -3.41391e+00    -4.82756e+00    -1.06790e+01
O      -8.75860e+00     5.15724e+00     4.93308e+00
H      -7.91855e+00     4.82066e+00     5.27859e+00
H      -8.72402e+00     5.80224e+00     4.21794e+00
O       4.53550e+00    -1.81255e+00    -2.81208e+00
H       4.86781e+00    -2.74538e+00    -3.01942e+00
H       5.30285e+00    -1.43104e+00    -2.36662e+00
O       1.55453e+00    -8.60913e+00    -1.02578e+00
H       2.45172e+00    -8.91018e+00    -1.25027e+00
H       1.66694e+00    -8.05454e+00    -2.44339e-01
O       1.17149e+00     1.09418e+01     7.52273e+00
H       9.27786e-01     1.07493e+01     6.57799e+00
H       1.48120e+00     1.18577e+01     7.71535e+00
O       1.22347e+01    -8.51822e+00    -8.81725e+00
H       1.19101e+01    -8.62156e+00    -7.88109e+00
H       1.25483e+01    -7.64685e+00    -8.93547e+00
O       4.76988e+00     7.62533e+00     5.91855e+00
H       5.55111e+00     7.15027e+00     5.59583e+00
H       5.23753e+00     8.41115e+00     6.34878e+00
O       1.09801e+01     9.06818e+00    -6.05572e+00
H       1.08105e+01     1.00004e+01    -5.68869e+00
H       1.07937e+01     8.36020e+00    -5.36387e+00
O      -2.84324e+00     3.00211e+00    -1.14234e+01
H      -1.93915e+00     2.83343e+00    -1.17855e+01
H      -3.11641e+00     3.85050e+00    -1.18966e+01
O      -5.64575e+00    -1.19795e+01     6.58911e+00
H      -5.19768e+00    -1.26278e+01     7.17983e+00
H      -5.48514e+00    -1.22160e+01     5.62877e+00
O      -8.93934e-01    -1.18623e+01     3.94892e+00
H      -8.44858e-01    -1.15925e+01     4.92414e+00
H       3.34492e-02    -1.22631e+01     3.81175e+00
O      -1.17575e+01    -1.17462e+01    -1.16632e+01
H      -1.22515e+01    -1.17870e+01    -1.08173e+01
H      -1.10015e+01    -1.12852e+01    -1.14099e+01
O      -3.58913e+00     5.00823e-01     2.54943e+00
H      -3.92794e+00    -4.06884e-01     2.43938e+00
H      -4.23143e+00     1.07903e+00     2.09928e+00
O      -8.39908e+00    -6.07498e+00    -6.04297e+00
H      -7.46387e+00    -6.29555e+00    -5.89139e+00
H      -8.54970e+00    -6.39942e+00    -6.93761e+00
O       8.60258e-02     7.92717e+00    -1.03589e+00
H       3.46549e-02     8.66593e+00    -1.68747e+00
H       9.56317e-01     8.13146e+00    -6.11251e-01
O      -5.29731e+00    -7.81953e+00     1.04120e+01
H      -5.88507e+00    -8.62363e+00     1.05827e+01
H      -5.85880e+00    -7.17400e+00     9.96999e+00
O      -8.30019e-01     1.10597e+01    -6.81836e+00
H      -2.38767e-01     1.12717e+01    -7.58818e+00
H      -2.39011e-01     1.10373e+01    -6.01958e+00
O       8.44162e-01    -9.04368e-02     2.29883e+00
H      -7.57682e-02     3.60707e-02     1.94140e+00
H       9.57231e-01     6.77418e-01     2.83512e+00
O       5.00993e+00    -1.37528e+01     1.94041e+00
H       4.86214e+00    -1.33880e+01     1.01554e+00
H       5.96924e+00    -1.40293e+01     1.89175e+00
O      -1.03289e+01     3.19643e+00     4.03392e+00
H      -9.80472e+00     3.98705e+00     4.40634e+00
H      -1.12656e+01     3.23676e+00     4.38583e+00
O       7.03834e+00     4.65901e+00    -8.63554e+00
H       6.69227e+00     5.30741e+00    -9.26647e+00
H       6.95902e+00     3.75750e+00    -9.09965e+00
O      -3.88279e+00    -8.63176e+00    -1.02732e+01
H      -4.67980e+00    -8.15001e+00    -1.03936e+01
H      -3.91282e+00    -9.38011e+00    -1.08938e+01
O      -2.48092e+00     1.24932e+00    -3.43509e+00
H      -2.50450e+00     2.19439e+00    -3.73216e+00
H      -3.21075e+00     9.29367e-01    -3.94111e+00
O      -3.96771e+00    -1.09288e+01    -1.18390e+01
H      -3.82279e+00    -1.18394e+01    -1.15491e+01
H      -3.27355e+00    -1.07643e+01    -1.25292e+01
O      -4.85326e-01    -1.01070e+01    -5.01474e+00
H      -1.19902e+00    -1.08144e+01    -5.11470e+00
H      -9.76987e-03    -1.04028e+01    -4.21351e+00
O      -2.32264e+00    -9.92869e+00    -2.63686e+00
H      -1.81948e+00    -1.03873e+01    -1.91132e+00
H      -2.09888e+00    -1.05063e+01    -3.36188e+00
O       5.13224e+00    -2.58755e+00     9.04496e+00
H       5.62828e+00    -2.08854e+00     8.33294e+00
H       5.62156e+00    -3.42546e+00     9.25942e+00
O      -1.24071e+01     5.41486e+00     1.02914e+01
H      -1.18288e+01     5.08781e+00     1.10368e+01
H      -1.21233e+01     4.78138e+00     9.57061e+00
O      -5.32108e-01     7.67979e+00     7.00649e+00
H      -1.69985e-01     8.42265e+00     6.50095e+00
H      -8.44693e-01     8.10537e+00     7.90867e+00
O      -8.33104e+00    -8.72529e-01     6.36858e+00
H      -7.47261e+00    -4.98243e-01     6.69992e+00
H      -8.61914e+00    -1.72506e-01     5.67968e+00
O       4.19847e+00     7.05555e+00    -5.80263e+00
H       4.80720e+00     6.31790e+00    -5.95740e+00
H       3.58532e+00     6.56474e+00    -5.25368e+00
O      -1.30851e+01    -1.84730e+00    -7.63283e+00
H      -1.25926e+01    -1.50938e+00    -8.41118e+00
H      -1.39995e+01    -2.10333e+00    -7.94140e+00
O      -4.06627e+00    -6.65804e+00     1.09915e+00
H      -4.73685e+00    -6.91833e+00     3.70664e-01
H      -4.57305e+00    -5.97609e+00     1.65219e+00
O      -7.86241e+00    -3.46581e+00     6.55223e+00
H      -7.96999e+00    -2.44377e+00     6.45856e+00
H      -8.16813e+00    -3.93687e+00     5.75273e+00
O       1.26809e+01    -1.86586e+00    -9.98337e+00
H       1.26477e+01    -2.87942e+00    -1.00014e+01
H       1.21470e+01    -1.68385e+00    -1.07576e+01
O       8.55471e+00    -6.56973e+00     8.26218e+00
H       9.50210e+00    -6.27017e+00     8.24463e+00
H       7.99035e+00    -5.92769e+00     8.76169e+00
O       1.09912e+01     5.21014e+00    -6.48125e+00
H       1.10161e+01     4.34515e+00    -5.96702e+00
H       1.10354e+01     5.90520e+00    -5.79504e+00
O       2.60281e+00    -8.95326e+00    -4.59552e+00
H       2.15159e+00    -8.80879e+00    -5.45725e+00
H       2.12899e+00    -8.39390e+00    -4.03396e+00
O       1.04012e+01    -2.13775e+00     4.05787e+00
H       1.04502e+01    -1.30348e+00     3.54140e+00
H       9.60972e+00    -1.93806e+00     4.65238e+00
O       1.18708e+00     1.10649e+01    -4.80932e+00
H       1.41960e+00     1.19245e+01    -4.44111e+00
H       2.00350e+00     1.06788e+01    -5.07766e+00
O       2.93182e+00     1.17873e+01    -1.21664e+01
H       2.00031e+00     1.14885e+01    -1.21746e+01
H       2.89861e+00     1.25755e+01    -1.15169e+01
O       5.55126e-01    -9.46824e+00     7.66567e+00
H       5.25649e-01    -8.79905e+00     6.94569e+00
H       5.12304e-01    -8.98912e+00     8.51645e+00
O       9.30760e+00     8.79332e+00    -8.10628e+00
H       9.86264e+00     8.83587e+00    -7.28515e+00
H       9.10216e+00     7.88591e+00    -8.26026e+00
O       6.67935e+00    -1.07503e+01    -1.08717e+01
H       6.76008e+00    -1.13204e+01    -1.17018e+01
H       7.25325e+00    -1.00379e+01    -1.12141e+01
O      -5.99217e+00    -2.84959e+00    -1.10558e+01
H      -5.52924e+00    -2.01055e+00    -1.07187e+01
H      -5.39669e+00    -3.59881e+00    -1.13942e+01
O       2.37612e+00     5.76938e+00    -4.43802e+00
H       1.77502e+00     5.87078e+00    -3.64503e+00
H       1.96609e+00     5.07560e+00    -4.98943e+00
O      -1.02983e+01     5.74220e+00     7.23369e+00
H      -9.82016e+00     5.66844e+00     6.37027e+00
H      -1.07985e+01     4.91469e+00     7.35599e+00
O       9.52747e+00     1.29328e+00     1.00318e+01
H       1.02128e+01     1.04687e+00     1.06168e+01
H       9.97206e+00     1.67484e+00     9.27943e+00
O       9.30731e+00     1.03897e+01    -2.08500e+00
H       1.02569e+01     1.01949e+01    -2.25461e+00
H       9.40941e+00     1.12978e+01    -1.76477e+00
O       2.58914e+00     1.72733e+00     5.64281e+00
H       2.05405e+00     1.83369e+00     4.86686e+00
H       3.27872e+00     2.43469e+00     5.63942e+00
O      -5.85263e+00    -8.59894e+00    -6.33686e+00
H      -5.45834e+00    -7.75654e+00    -5.98378e+00
H      -5.16423e+00    -9.18939e+00    -6.73289e+00
O       1.15195e+01     8.67253e+00     3.12904e+00
H       1.14924e+01     9.09518e+00     2.26921e+00
H       1.11034e+01     7.81809e+00     2.93831e+00
O      -4.24849e+00    -8.92078e+00     2.44397e+00
H      -4.12405e+00    -8.08829e+00     1.97858e+00
H      -5.08737e+00    -9.32132e+00     2.11613e+00
O       1.69304e+00     3.23701e+00    -1.46902e+00
H       2.44530e+00     3.12570e+00    -2.12328e+00
H       1.06392e+00     3.91199e+00    -1.76848e+00
O      -7.66664e+00     8.39977e+00     7.37584e+00
H      -8.28806e+00     9.08790e+00     7.65862e+00
H      -7.85868e+00     7.67099e+00     8.08410e+00
O      -6.71467e+00    -4.32906e-01    -8.02200e+00
H      -7.46639e+00     4.10239e-02    -7.61875e+00
H      -6.75555e+00    -1.34375e+00    -7.63154e+00
O      -7.02469e+00     5.54891e+00    -1.16764e+01
H      -6.88455e+00     4.89977e+00    -1.09518e+01
H      -8.03677e+00     5.73040e+00    -1.17259e+01
O      -8.78506e+00    -1.88539e+00     1.00590e+01
H      -8.83089e+00    -2.86737e+00     9.87115e+00
H      -8.70958e+00    -1.91799e+00     1.10429e+01
O       8.11370e-01     1.22186e+01    -8.70388e+00
H       2.14442e-02     1.28348e+01    -9.07547e+00
H       1.09582e+00     1.27188e+01    -7.86106e+00
O       9.21837e+00     6.15064e+00    -8.48462e+00
H       8.49766e+00     5.52174e+00    -8.48619e+00
H       9.80566e+00     5.95508e+00    -7.71647e+00
O       1.18101e+01     1.15556e+00    -1.28289e+01
H       1.13954e+01     1.71181e+00    -1.21726e+01
H       1.15473e+01     2.23608e-01    -1.26861e+01
O       1.12410e+01    -4.88004e+00    -1.57420e+00
H       1.21821e+01    -5.04074e+00    -1.75668e+00
H       1.12063e+01    -4.09479e+00    -9.30828e-01
O       1.51684e+00     8.99260e+00    -8.65083e+00
H       1.87875e+00     9.41580e+00    -7.87348e+00
H       2.14821e+00     9.16176e+00    -9.33266e+00
O      -7.72070e+00     1.10926e+01    -9.24554e+00
H      -7.91074e+00     1.08793e+01    -8.24259e+00
H      -6.76627e+00     1.07769e+01    -9.43546e+00
O      -2.99813e+00    -4.88116e+00    -6.38595e+00
H      -2.19601e+00    -5.34136e+00    -6.16176e+00
H      -3.02951e+00    -4.91042e+00    -7.35071e+00
O       1.36569e+01    -4.45415e+00     6.86600e+00
H       1.42160e+01    -4.38141e+00     7.66706e+00
H       1.33900e+01    -3.60714e+00     6.46226e+00
O       4.33430e+00    -6.41624e+00     9.64526e+00
H       4.50951e+00    -7.29533e+00     1.01290e+01
H       4.09001e+00    -6.62059e+00     8.70187e+00
O      -1.90070e+00    -7.14668e+00    -2.65224e+00
H      -2.02155e+00    -8.11885e+00    -2.81167e+00
H      -9.61602e-01    -7.19413e+00    -2.25419e+00
O      -9.06339e+00    -9.86112e+00     1.14558e+00
H      -9.67567e+00    -1.05630e+01     1.51389e+00
H      -9.37141e+00    -9.76776e+00     2.42823e-01
O       1.11954e+01     1.17642e+01    -5.86313e+00
H       1.19525e+01     1.21557e+01    -5.25183e+00
H       1.05495e+01     1.25113e+01    -6.09229e+00
O       7.19566e+00    -8.28065e+00    -6.26362e-01
H       6.98081e+00    -8.34064e+00     3.37258e-01
H       6.51174e+00    -7.78713e+00    -1.10732e+00
O       8.91028e+00     3.90612e+00     1.07889e+01
H       8.98048e+00     2.92916e+00     1.07454e+01
H       8.78593e+00     4.11763e+00     9.81099e+00
O      -8.56653e+00     9.84611e+00    -6.88671e+00
H      -9.50404e+00     9.79180e+00    -7.01612e+00
H      -8.35912e+00     9.97320e+00    -5.93936e+00
O      -5.98767e+00     3.06763e+00    -7.43676e+00
H      -5.49160e+00     3.79001e+00    -7.05975e+00
H      -5.27989e+00     2.35738e+00    -7.67295e+00
O       4.85807e+00    -1.33644e+01    -8.62630e-01
H       4.88437e+00    -1.43347e+01    -1.06667e+00
H       5.37812e+00    -1.29212e+01    -1.53753e+00
O       4.97827e+00    -8.99700e+00     5.63917e+00
H       4.65773e+00    -8.22070e+00     6.12439e+00
H       5.96288e+00    -8.96930e+00     5.64655e+00
O      -6.45488e+00     9.00689e+00    -3.45365e+00
H      -6.15442e+00     8.27376e+00    -4.07618e+00
H      -5.60890e+00     9.51746e+00    -3.32435e+00
O       2.14867e+00    -1.10602e+00    -1.94616e+00
H       3.07553e+00    -1.38543e+00    -2.16854e+00
H       2.14733e+00    -3.69877e-01    -1.27595e+00
O      -9.58829e+00     6.00236e+00    -1.13013e+01
H      -1.03956e+01     5.51064e+00    -1.16369e+01
H      -9.81501e+00     6.63321e+00    -1.05224e+01
O       9.94133e+00     6.51216e+00     2.88806e+00
H       9.23273e+00     6.96963e+00     3.41837e+00
H       1.00056e+01     5.60016e+00     3.13464e+00
O       8.45279e+00     7.29366e+00     8.14312e+00
H       8.09693e+00     7.81780e+00     8.85562e+00
H       9.32731e+00     7.62986e+00     7.88592e+00
O       1.02355e+01    -3.88535e+00    -3.87046e+00
H       9.27049e+00    -3.93523e+00    -3.97793e+00
H       1.05074e+01    -4.25532e+00    -2.97492e+00
O      -1.85322e+00    -2.60513e-02     1.00842e+01
H      -1.43286e+00    -2.47860e-01     9.20361e+00
H      -1.11035e+00    -1.25194e-01     1.07016e+01
O       1.11225e+01    -1.34930e+00     1.25222e+01
H       1.02982e+01    -1.32624e+00     1.30766e+01
H       1.06789e+01    -1.65102e+00     1.17072e+01
O       1.27954e+01    -2.37614e+00     5.40642e+00
H       1.33377e+01    -2.18292e+00     4.64296e+00
H       1.19606e+01    -2.72641e+00     5.08590e+00
O      -6.64945e+00    -1.46767e-01     9.45506e+00
H      -5.75045e+00    -5.00959e-01     9.64119e+00
H      -7.35948e+00    -7.61327e-01     9.72694e+00
O      -5.29347e+00    -4.16082e+00     6.68840e+00
H      -4.99064e+00    -3.94298e+00     7.60967e+00
H      -6.23258e+00    -3.96822e+00     6.66488e+00
O      -8.89931e+00    -3.35953e+00    -5.81093e+00
H      -8.55616e+00    -4.23474e+00    -5.66342e+00
H      -9.39429e+00    -2.93310e+00    -5.03747e+00
O      -8.89633e+00    -5.84112e+00    -4.66737e-01
H      -8.50353e+00    -6.54623e+00    -9.99488e-01
H      -8.06457e+00    -5.43037e+00    -1.79873e-01
O      -1.04290e+01     4.23253e+00    -2.15663e+00
H      -1.13652e+01     4.45063e+00    -2.23355e+00
H      -1.02973e+01     3.43057e+00    -2.69839e+00
O       3.06180e+00     4.91758e+00     1.98612e-01
H       2.59985e+00     4.49291e+00    -5.69914e-01
H       3.99512e+00     4.59504e+00     2.65044e-01
O       1.21841e+01     6.08771e-01    -1.54785e+00
H       1.21105e+01    -4.48388e-02    -8.86353e-01
H       1.21446e+01     1.47394e+00    -1.01833e+00
O       1.55524e+00    -2.84793e+00     2.32760e+00
H       1.50567e+00    -1.86799e+00     2.18973e+00
H       2.45724e+00    -3.03910e+00     2.42432e+00
O      -4.33217e+00     1.05778e+01    -3.33788e+00
H      -3.68103e+00     1.01303e+01    -3.86938e+00
H      -4.65661e+00     1.13721e+01    -3.88165e+00
O      -2.04084e+00     5.63270e+00    -2.85315e+00
H      -2.38491e+00     5.01144e+00    -3.57637e+00
H      -2.48231e+00     6.45303e+00    -3.15053e+00
O      -1.03630e+01     8.77320e+00     3.44115e+00
H      -1.02819e+01     8.95325e+00     4.40634e+00
H      -1.13548e+01     8.83259e+00     3.34083e+00
O      -6.65842e+00     5.04477e+00    -3.42678e+00
H      -6.11516e+00     5.67761e+00    -2.83260e+00
H      -7.54358e+00     5.46524e+00    -3.53094e+00
O      -1.11796e+01     1.23142e+01    -1.52271e+00
H      -1.02353e+01     1.21576e+01    -1.61195e+00
H      -1.12870e+01     1.25861e+01    -5.78336e-01
O       1.03165e+01    -1.05379e+01     9.45518e+00
H       9.69496e+00    -9.91848e+00     8.92424e+00
H       1.10815e+01    -1.07738e+01     8.96723e+00
O       2.60376e+00     9.19753e+00     8.69082e+00
H       3.46996e+00     9.70536e+00     8.72659e+00
H       2.06974e+00     9.80499e+00     8.14696e+00
O       6.02072e+00    -5.43473e+00     2.08256e+00
H       5.06509e+00    -5.41477e+00     2.15889e+00
H       6.28262e+00    -4.95884e+00     1.20616e+00
O       1.00459e+01    -2.74252e+00     1.04128e+01
H       9.64337e+00    -2.39460e+00     9.58659e+00
H       1.08020e+01    -3.08868e+00     9.99511e+00
O      -1.27340e+01    -5.85738e-01     7.43993e+00
H      -1.18339e+01    -4.21750e-01     7.79616e+00
H      -1.25940e+01    -1.10189e+00     6.60427e+00
O      -1.25744e+01     2.88273e+00    -5.00299e+00
H      -1.16714e+01     2.89640e+00    -4.61296e+00
H      -1.30281e+01     2.23203e+00    -4.41484e+00
O      -9.95640e+00     7.53696e+00     1.07949e+01
H      -9.61090e+00     7.19258e+00     1.16798e+01
H      -9.25411e+00     7.15265e+00     1.01647e+01
O       8.54937e+00    -8.97869e+00     1.26519e+01
H       8.15686e+00    -9.04444e+00     1.17974e+01
H       9.42599e+00    -9.42387e+00     1.26119e+01
O       1.11854e+01    -6.12598e+00     8.47144e+00
H       1.19106e+01    -6.54845e+00     7.90064e+00
H       1.15310e+01    -5.22366e+00     8.61615e+00
O       8.36839e+00    -1.21191e+00     5.73836e+00
H       8.22591e+00    -2.74205e-01     5.57102e+00
H       8.68706e+00    -1.21746e+00     6.67861e+00
O      -2.47772e+00     6.63199e+00     5.26864e+00
H      -2.83454e+00     7.35431e+00     4.69295e+00
H      -1.68010e+00     6.99679e+00     5.77547e+00
O      -9.97668e+00    -1.11272e+01     9.26349e+00
H      -9.27490e+00    -1.08550e+01     8.66807e+00
H      -1.02714e+01    -1.03861e+01     9.72486e+00
O      -6.03573e+00     1.07949e+00     7.01499e+00
H      -6.79736e+00     1.63220e+00     7.07048e+00
H      -5.97512e+00     7.22383e-01     7.93413e+00
O      -1.05638e+00     1.39270e+01    -9.56688e+00
H      -1.66198e+00     1.39065e+01    -8.80166e+00
H      -7.24689e-01     1.48616e+01    -9.61928e+00
O       2.68982e-01    -7.74867e+00     5.44196e+00
H      -5.99588e-01    -7.33000e+00     5.63055e+00
H       8.58402e-01    -6.94876e+00     5.31122e+00
O       9.55099e+00    -6.40646e+00    -1.16618e+01
H       9.15031e+00    -7.27423e+00    -1.15486e+01
H       1.03208e+01    -6.71062e+00    -1.22331e+01
O      -3.33774e+00     2.19195e+00     9.59657e+00
H      -4.26056e+00     2.04507e+00     9.95802e+00
H      -2.71821e+00     1.44293e+00     9.85338e+00
O       8.09454e+00    -1.28664e+01     6.15095e+00
H       8.54638e+00    -1.29557e+01     7.03991e+00
H       8.76223e+00    -1.31868e+01     5.51577e+00
O       3.37414e+00     6.67580e+00     8.49280e+00
H       3.99341e+00     6.74667e+00     7.78093e+00
H       2.94691e+00     7.64421e+00     8.41702e+00
O       5.12416e+00    -1.01634e+01    -4.54640e+00
H       5.01370e+00    -1.06610e+01    -5.42699e+00
H       4.33317e+00    -9.58595e+00    -4.60569e+00
O      -5.95488e-01    -3.72120e-01     7.66848e+00
H       4.04497e-02    -1.05605e+00     7.51090e+00
H      -8.17721e-02     5.20295e-01     7.55321e+00
O      -5.13642e+00     9.90445e+00    -6.86333e+00
H      -5.46540e+00     1.07091e+01    -6.45826e+00
H      -4.86198e+00     1.01716e+01    -7.78339e+00
O       6.00635e-01     1.04370e+01     1.45965e+00
H      -1.80342e-02     9.97566e+00     2.05325e+00
H       1.38680e+00     9.87738e+00     1.70287e+00
O      -2.37290e+00     3.91295e+00    -8.81110e+00
H      -1.72955e+00     4.52284e+00    -9.16443e+00
H      -2.68793e+00     3.46300e+00    -9.59358e+00
O       3.46766e+00    -6.39040e+00     2.85634e+00
H       2.86681e+00    -6.61457e+00     2.11219e+00
H       3.74609e+00    -7.35114e+00     3.00356e+00
O       4.03595e+00     3.74723e+00    -2.95146e+00
H       3.57222e+00     4.48236e+00    -3.37885e+00
H       3.95781e+00     3.07336e+00    -3.67518e+00
O       1.88690e+00     6.00810e+00    -8.06078e+00
H       1.84111e+00     6.96870e+00    -7.87659e+00
H       2.36754e+00     5.98590e+00    -8.91414e+00
O      -4.84661e+00    -3.86795e+00     9.41467e+00
H      -3.97389e+00    -4.25306e+00     9.76521e+00
H      -4.60686e+00    -2.89411e+00     9.44235e+00
O      -8.04819e+00    -7.86927e-01    -8.06101e-01
H      -7.73970e+00     8.36980e-02    -5.00700e-01
H      -8.62635e+00    -5.15628e-01    -1.55446e+00
O      -6.28782e+00    -7.14752e+00    -1.00008e+01
H      -6.94254e+00    -6.87771e+00    -1.07037e+01
H      -6.91632e+00    -7.56143e+00    -9.34695e+00
O      -1.35391e+00    -1.12005e+01     6.55778e+00
H      -7.57002e-01    -1.04760e+01     6.84186e+00
H      -2.23579e+00    -1.08347e+01     6.44777e+00
O       1.12001e+01    -1.00926e+01     2.65664e-01
H       1.20823e+01    -1.02881e+01     6.97072e-01
H       1.07570e+01    -9.37007e+00     7.27272e-01
O      -5.22831e+00    -6.23705e-01    -1.00007e+01
H      -5.22848e+00     9.94505e-02    -1.06276e+01
H      -5.90884e+00    -3.89010e-01    -9.34827e+00
O       7.28662e+00     1.49246e-01     1.61594e+00
H       8.00144e+00     7.60690e-01     1.78393e+00
H       7.65503e+00    -7.44804e-01     1.29592e+00
O       1.15682e+00    -5.38689e+00    -7.22019e+00
H       4.41966e-01    -5.59052e+00    -6.57361e+00
H       1.35883e+00    -6.34979e+00    -7.50341e+00
O      -4.35352e+00    -6.20381e+00    -3.17941e+00
H      -3.38249e+00    -6.34009e+00    -3.11470e+00
H      -4.75175e+00    -6.73035e+00    -2.43353e+00
O       1.04671e+01     7.00961e+00    -4.31682e+00
H       9.53016e+00     6.80668e+00    -4.09625e+00
H       1.10607e+01     6.51886e+00    -3.63863e+00
O       7.78131e+00     4.00205e+00    -1.91790e+00
H       6.90748e+00     3.89816e+00    -1.48287e+00
H       8.00607e+00     3.17342e+00    -2.31331e+00
O      -6.50646e+00     8.11731e+00     6.92016e-03
H      -6.35673e+00     7.87769e+00    -9.42565e-01
H      -5.65236e+00     7.99292e+00     3.88175e-01
O       6.11331e+00    -2.18626e+00    -5.83036e+00
H       6.22398e+00    -2.51490e+00    -6.75415e+00
H       5.17425e+00    -2.35964e+00    -5.66072e+00
O       6.55598e+00    -1.70017e+00     3.64207e+00
H       5.64585e+00    -2.03832e+00     3.60802e+00
H       6.56946e+00    -9.55134e-01     2.99843e+00
O      -9.86169e+00    -6.34340e-02    -2.87983e+00
H      -1.06307e+01     2.17028e-01    -2.37205e+00
H      -1.01704e+01    -8.83825e-01    -3.31568e+00
O       7.15445e+00     2.74009e-01    -5.56804e+00
H       6.68755e+00    -5.95313e-01    -5.61041e+00
H       6.58186e+00     8.70160e-01    -6.01800e+00
O      -9.27114e+00    -9.82716e+00    -1.52401e+00
H      -8.91705e+00    -1.07244e+01    -1.88070e+00
H      -1.02543e+01    -9.71437e+00    -1.70160e+00
O      -1.42360e+00    -1.78018e-01     9.95954e-01
H      -1.40880e+00     3.32556e-01     8.69009e-02
H      -2.25285e+00     1.02461e-01     1.42765e+00
O       4.32540e+00    -1.14377e+01     6.57653e+00
H       4.67495e+00    -1.05256e+01     6.43837e+00
H       4.86549e+00    -1.18108e+01     7.27368e+00
O       7.69052e+00     8.85031e+00    -3.09186e-01
H       6.69673e+00     8.82439e+00    -5.67874e-01
H       8.26938e+00     9.25857e+00    -9.83005e-01
O      -6.47902e+00    -1.01696e+01    -1.30848e+01
H      -6.55337e+00    -1.09601e+01    -1.36783e+01
H      -5.76080e+00    -1.03744e+01    -1.25329e+01
O       9.61168e-01     2.35797e-01    -8.55936e+00
H       9.30246e-01     1.09758e+00    -9.09986e+00
H       5.26503e-01    -3.94961e-01    -9.17975e+00
O      -1.61155e+00    -8.21150e+00    -6.44325e+00
H      -1.18075e+00    -8.78920e+00    -5.80862e+00
H      -1.45983e+00    -7.30651e+00    -6.10622e+00
O      -5.45682e+00     1.21439e+01    -5.21688e+00
H      -6.14143e+00     1.27768e+01    -4.97359e+00
H      -4.77538e+00     1.27044e+01    -5.69898e+00
O       9.35091e+00     1.88153e+00     1.87189e+00
H       9.97007e+00     2.27065e+00     1.24830e+00
H       9.39655e+00     2.62006e+00     2.59141e+00
O      -9.63853e+00    -4.45257e+00     1.32981e+01
H      -1.02729e+01    -4.36269e+00     1.40199e+01
H      -9.11206e+00    -3.65339e+00     1.31881e+01
O      -1.18960e+01    -5.30940e+00     2.49269e+00
H      -1.28477e+01    -5.02198e+00     2.50911e+00
H      -1.18236e+01    -5.91767e+00     1.68368e+00
O      -5.89365e+00     2.30522e+00     1.07144e+01
H      -6.23929e+00     1.47284e+00     1.04712e+01
H      -5.70497e+00     2.19690e+00     1.16593e+01
O       6.33513e+00     4.80135e+00     1.20091e+01
H       7.25848e+00     4.76446e+00     1.16471e+01
H       5.61029e+00     5.11262e+00     1.13224e+01
O       6.92962e+00    -4.40882e+00    -1.98514e-01
H       7.74263e+00    -4.93986e+00    -1.89378e-01
H       7.12711e+00    -3.48185e+00     6.06451e-02
O       1.30947e+01     2.83239e+00    -8.92658e+00
H       1.30802e+01     3.79599e+00    -8.59042e+00
H       1.30337e+01     2.26349e+00    -8.16196e+00
O       9.59180e+00     7.10192e+00     2.70526e-01
H       8.63247e+00     7.37337e+00     2.64282e-01
H       9.80640e+00     6.77797e+00     1.21699e+00
O       6.01848e+00     1.25405e+01     8.59538e+00
H       6.97854e+00     1.25068e+01     8.54494e+00
H       5.82343e+00     1.19620e+01     9.35566e+00
O      -9.96880e+00    -7.02950e+00     9.42548e+00
H      -1.03098e+01    -7.89034e+00     9.80542e+00
H      -9.08353e+00    -7.29841e+00     9.04605e+00
O       1.05332e+01    -2.84885e+00     6.37802e-01
H       1.13687e+01    -2.35241e+00     8.59729e-01
H       1.04532e+01    -3.41485e+00     1.41309e+00
O       4.59373e-01     2.12174e+00     3.90879e+00
H       3.01533e-01     2.91609e+00     3.37855e+00
H      -3.73267e-01     1.70992e+00     4.22589e+00
O       1.07022e+01     8.82668e+00     7.66110e+00
H       1.05348e+01     9.65527e+00     8.19975e+00
H       1.16525e+01     8.59692e+00     7.86954e+00
O      -6.76289e+00    -1.02699e+01    -4.36400e+00
H      -6.27369e+00    -1.01031e+01    -3.51706e+00
H      -6.47747e+00    -9.55621e+00    -5.01352e+00
O      -1.00140e+01     9.75688e+00     8.20639e+00
H      -9.71979e+00     1.01635e+01     9.05353e+00
H      -1.04788e+01     8.90840e+00     8.50162e+00
O       2.25797e+00    -1.03538e+01     2.02010e+00
H       1.96674e+00    -1.10204e+01     2.68352e+00
H       1.70907e+00    -9.60762e+00     2.13714e+00
O      -5.03517e+00    -1.00830e+01    -1.96237e+00
H      -4.13811e+00    -9.95580e+00    -2.19239e+00
H      -5.00561e+00    -1.08477e+01    -1.38964e+00
O      -6.48722e-01     1.11800e+01    -7.80635e-01
H      -3.29065e-01     1.20946e+01    -9.29540e-01
H      -8.02650e-02     1.08055e+01     1.35716e-02
O       9.49438e+00    -1.27080e+00     8.29921e+00
H       9.36079e+00    -3.23074e-01     8.71749e+00
H       1.04264e+01    -1.30334e+00     7.98743e+00
O       1.57133e+00     3.90860e+00    -6.36591e+00
H       1.76923e+00     4.64388e+00    -6.96470e+00
H       6.61862e-01     3.65739e+00    -6.59602e+00
O      -1.21272e+01     9.99994e-01    -6.91557e+00
H      -1.28686e+01     3.77822e-01    -7.04085e+00
H      -1.22874e+01     1.65347e+00    -6.20206e+00
O      -9.01847e+00     1.12370e+01     1.01584e+01
H      -9.29759e+00     1.21796e+01     1.01407e+01
H      -9.59405e+00     1.08362e+01     1.08525e+01
O      -4.94767e+00     1.25692e+01     4.95550e-02
H      -5.55928e+00     1.18009e+01    -6.21512e-02
H      -4.10320e+00     1.21841e+01     3.52133e-01
O       1.20833e+01     7.67233e+00    -1.10921e+01
H       1.16954e+01     6.94381e+00    -1.06710e+01
H       1.15694e+01     8.42271e+00    -1.05810e+01
O      -2.48580e-01     3.83833e-01    -6.11349e+00
H       5.07986e-01     3.24400e-01    -5.46307e+00
H       1.26799e-01     9.77549e-02    -6.95445e+00
O       1.13336e+01    -6.68169e+00     1.10821e+01
H       1.11091e+01    -6.62946e+00     1.01425e+01
H       1.20798e+01    -6.13930e+00     1.12698e+01
O       5.25730e+00     4.01302e+00     9.22220e+00
H       5.24640e+00     3.01836e+00     9.38737e+00
H       4.93803e+00     3.94685e+00     8.27317e+00
O      -5.71322e+00    -5.11348e-01     8.74343e-01
H      -5.80806e+00    -7.42773e-01    -8.87688e-02
H      -5.30638e+00    -1.32592e+00     1.21591e+00
O      -1.54064e+00    -4.16583e+00    -2.99597e+00
H      -2.09835e+00    -3.66620e+00    -3.60113e+00
H      -2.01127e+00    -4.44986e+00    -2.16286e+00
O       1.12879e+01     1.85394e-01     3.05921e+00
H       1.07396e+01     7.78616e-01     2.50019e+00
H       1.21870e+01     7.84463e-02     2.59108e+00
O       1.35905e+01     2.99995e+00     1.47877e+00
H       1.38940e+01     3.46962e+00     2.31888e+00
H       1.42244e+01     3.30396e+00     8.33287e-01
O      -4.53787e+00     1.07311e+01    -1.20474e+01
H      -4.22681e+00     9.97577e+00    -1.26161e+01
H      -5.04171e+00     1.12471e+01    -1.27046e+01
O       6.79730e+00    -8.12907e+00     2.12666e+00
H       6.52450e+00    -7.18895e+00     2.10259e+00
H       6.00036e+00    -8.61626e+00     2.31958e+00
O       5.53954e+00     1.13092e+01    -6.24271e+00
H       6.14071e+00     1.11101e+01    -6.96404e+00
H       5.98774e+00     1.08562e+01    -5.44962e+00
O      -3.55623e+00    -4.66109e+00    -8.91631e+00
H      -3.16136e+00    -3.76553e+00    -8.98890e+00
H      -4.55994e+00    -4.59073e+00    -8.88339e+00
O       6.32542e+00    -4.44182e-01    -1.15225e+01
H       5.90405e+00     4.44366e-01    -1.14055e+01
H       5.93007e+00    -1.12246e+00    -1.09287e+01
O       3.22784e+00    -9.28044e-01     6.05625e+00
H       3.07933e+00     4.01943e-02     5.84554e+00
H       2.43625e+00    -1.26095e+00     6.55140e+00
O       2.92007e+00    -5.47463e+00    -2.89266e+00
H       2.90829e+00    -5.44409e+00    -3.86123e+00
H       2.44203e+00    -4.73475e+00    -2.54277e+00
O       7.24722e+00     6.69509e+00     5.58302e+00
H       7.50972e+00     7.43681e+00     4.94338e+00
H       7.63510e+00     7.05850e+00     6.47293e+00
O      -9.07127e+00    -1.01279e+01     4.98458e+00
H      -8.89789e+00    -9.37861e+00     4.35002e+00
H      -1.00551e+01    -1.01180e+01     5.13449e+00
O       6.03801e+00     8.01425e+00    -3.66437e+00
H       5.45030e+00     7.82776e+00    -4.45163e+00
H       6.45460e+00     8.89954e+00    -3.95535e+00
O      -9.43745e+00    -7.72650e-01    -9.77522e+00
H      -9.00731e+00    -7.48130e-01    -8.85202e+00
H      -1.03881e+01    -1.06647e+00    -9.71949e+00
O      -2.11070e+00    -2.92917e+00     1.23590e+01
H      -1.30926e+00    -2.58115e+00     1.29008e+01
H      -1.70508e+00    -3.39486e+00     1.15933e+01
O      -8.40815e+00    -2.19460e+00    -1.19414e+01
H      -7.44173e+00    -2.32802e+00    -1.16993e+01
H      -8.73065e+00    -1.52282e+00    -1.12943e+01
O       8.06731e-02    -1.12426e-01     1.19408e+01
H      -2.30460e-01    -7.42603e-01     1.26125e+01
H       9.40630e-01    -5.12628e-01     1.16029e+01
O       8.30415e+00     8.42621e+00     3.89344e+00
H       7.83515e+00     8.97226e+00     3.21850e+00
H       8.99158e+00     8.98762e+00     4.33538e+00
O       3.37435e+00    -4.88110e+00    -5.73242e+00
H       2.60211e+00    -4.92957e+00    -6.36008e+00
H       4.09349e+00    -5.47950e+00    -6.09186e+00
O      -5.82723e+00    -1.22801e+01     3.79058e+00
H      -6.03708e+00    -1.15752e+01     3.14793e+00
H      -4.95977e+00    -1.26333e+01     3.45536e+00
O       4.66114e+00    -1.05619e+00     1.11769e+01
H       5.17993e+00    -1.04012e+00     1.19964e+01
H       5.13485e+00    -1.63424e+00     1.04668e+01
O       7.71872e+00    -9.29496e+00    -4.89218e+00
H       6.76488e+00    -9.53599e+00    -4.78418e+00
H       7.79188e+00    -8.32010e+00    -5.09869e+00
O      -6.56900e+00     4.99475e+00     1.03366e+01
H      -6.53057e+00     5.08473e+00     1.12891e+01
H      -6.36103e+00     4.02384e+00     1.03084e+01
O      -2.38445e+00    -4.81028e+00     1.01963e+01
H      -2.68895e+00    -5.71768e+00     1.05722e+01
H      -1.99303e+00    -5.02613e+00     9.33135e+00
O       5.50848e+00    -5.91224e+00    -7.23910e+00
H       5.15034e+00    -6.56085e+00    -7.93411e+00
H       5.81737e+00    -5.08640e+00    -7.68393e+00
O      -7.39629e+00     1.92408e+00    -3.81464e-01
H      -6.66245e+00     2.12875e+00     2.47321e-01
H      -8.03055e+00     2.66096e+00    -1.91067e-01
O      -1.97976e+00    -6.78343e+00     8.28930e+00
H      -2.48984e+00    -7.57999e+00     8.60185e+00
H      -2.16160e+00    -6.65834e+00     7.32904e+00
O       7.55745e+00     4.07048e+00     5.59760e+00
H       7.62421e+00     5.05354e+00     5.41677e+00
H       7.76365e+00     4.08973e+00     6.56649e+00
O      -3.02018e+00    -6.59035e-01     6.93509e+00
H      -2.02894e+00    -5.79416e-01     7.13043e+00
H      -3.31860e+00     2.97550e-01     6.90176e+00
O      -7.76595e+00     7.09496e+00    -7.84328e+00
H      -8.18535e+00     7.90901e+00    -7.59530e+00
H      -7.37490e+00     7.26066e+00    -8.72550e+00
O       9.19380e+00    -3.00832e+00    -8.78799e+00
H       8.94815e+00    -2.44224e+00    -9.54171e+00
H       9.75481e+00    -3.79783e+00    -9.15682e+00
O      -1.10472e+00    -7.89426e+00    -9.07279e+00
H      -1.93128e+00    -8.08142e+00    -9.54918e+00
H      -1.28273e+00    -7.88614e+00    -8.10454e+00
O       8.08257e+00    -2.05826e+00     3.70674e-01
H       9.05376e+00    -2.02294e+00     2.93506e-01
H       7.63685e+00    -1.55248e+00    -4.04566e-01
O       7.08667e+00     1.04840e+01    -8.44920e+00
H       7.58588e+00     1.13062e+01    -8.68192e+00
H       7.73930e+00     9.84029e+00    -8.05440e+00
O       8.47541e-01     8.87453e+00     1.07357e+01
H       1.50672e+00     9.14739e+00     9.98340e+00
H      -5.44641e-02     8.72869e+00     1.03364e+01
O      -3.56167e-01     2.57449e+00    -1.24697e+01
H       2.01185e-02     3.08823e+00    -1.31910e+01
H      -3.44846e-01     1.58422e+00    -1.26822e+01
O       2.86656e+00     9.36043e+00     2.24758e+00
H       3.77372e+00     9.74298e+00     2.05826e+00
H       2.82507e+00     9.15814e+00     3.19140e+00
O      -2.88621e+00     7.97107e+00    -3.62076e+00
H      -2.74371e+00     8.27638e+00    -4.56518e+00
H      -2.08735e+00     8.26926e+00    -3.17104e+00
O      -1.17201e+01    -8.75930e+00     2.60980e+00
H      -1.14382e+01    -8.93978e+00     3.54514e+00
H      -1.26963e+01    -8.71664e+00     2.64722e+00
O      -1.08349e+01     1.28117e+01     1.26448e+00
H      -1.15191e+01     1.29897e+01     1.94428e+00
H      -1.02560e+01     1.20461e+01     1.50856e+00
O       7.89233e+00     5.94276e+00    -3.73084e+00
H       7.30007e+00     6.76704e+00    -3.74233e+00
H       7.86308e+00     5.48037e+00    -2.87426e+00
O      -5.38392e+00    -5.98520e+00    -5.53534e+00
H      -4.61911e+00    -5.53479e+00    -6.03263e+00
H      -5.01552e+00    -6.19096e+00    -4.62719e+00
O       1.04906e+01     1.06678e+01     9.86247e+00
H       1.10094e+01     1.14462e+01     9.55244e+00
H       1.11074e+01     1.00523e+01     1.02247e+01
O       6.86160e+00     2.18583e+00    -9.20758e+00
H       7.76309e+00     1.81171e+00    -9.31226e+00
H       6.48359e+00     1.96816e+00    -1.00420e+01
O       1.43965e+00    -6.74525e+00     1.08482e+00
H       6.71197e-01    -7.08267e+00     1.61809e+00
H       1.19865e+00    -5.84115e+00     6.71120e-01
O       6.53312e+00    -3.42381e+00    -8.32829e+00
H       5.94535e+00    -3.22862e+00    -9.10798e+00
H       7.48770e+00    -3.32102e+00    -8.42088e+00
O      -8.93849e+00    -8.16132e+00     3.11556e+00
H      -8.22276e+00    -7.47873e+00     3.10230e+00
H      -8.75228e+00    -8.71119e+00     2.36495e+00
O      -6.43023e+00     2.49417e+00    -2.85745e+00
H      -6.89763e+00     2.37347e+00    -1.99706e+00
H      -6.58510e+00     3.43172e+00    -3.15015e+00
O      -4.49807e+00     8.68604e-01    -7.07123e+00
H      -5.22885e+00     2.20586e-01    -7.37885e+00
H      -3.66271e+00     3.24859e-01    -7.12837e+00
O       1.09519e+01     2.84302e+00    -1.07990e+01
H       1.17125e+01     2.73182e+00    -1.01030e+01
H       1.06839e+01     3.80311e+00    -1.08158e+01
O      -3.88349e+00     8.53535e+00     3.88362e+00
H      -4.66878e+00     8.48915e+00     4.50854e+00
H      -3.67138e+00     9.52527e+00     3.82712e+00
O      -9.10071e+00    -4.72866e+00     4.41140e+00
H      -9.73266e+00    -5.49198e+00     4.51594e+00
H      -9.68292e+00    -4.06627e+00     3.92337e+00
O      -1.15716e+01    -1.15508e+01    -4.36313e+00
H      -1.06142e+01    -1.16472e+01    -4.60787e+00
H      -1.14962e+01    -1.18961e+01    -3.43926e+00
O       8.72634e+00    -1.20213e+01    -8.81108e+00
H       8.75987e+00    -1.16092e+01    -7.91563e+00
H       8.05982e+00    -1.15379e+01    -9.38962e+00
O       3.99402e+00    -3.00762e+00     4.01002e+00
H       4.25575e+00    -3.79381e+00     4.51260e+00
H       3.69119e+00    -2.41223e+00     4.77184e+00
O      -7.65725e-01    -7.99136e+00    -1.29980e+01
H      -1.65672e+00    -7.52503e+00    -1.28867e+01
H      -3.55321e-01    -7.57328e+00    -1.38362e+01
O      -9.94208e-01     9.48691e+00    -1.02843e+01
H      -1.88831e+00     9.62423e+00    -9.93153e+00
H      -3.27471e-01     9.28359e+00    -9.63864e+00
O      -5.22218e-01     3.87107e+00     8.12585e+00
H      -2.51823e-01     2.97922e+00     7.85804e+00
H      -1.33331e-01     4.48202e+00     7.53353e+00
O      -2.46245e+00    -8.82437e-01    -6.66809e+00
H      -1.61934e+00    -5.06849e-01    -6.26794e+00
H      -2.75904e+00    -1.46991e+00    -5.97001e+00
O       2.39824e+00     1.42256e+00     9.94411e+00
H       2.30491e+00     6.73969e-01     1.05480e+01
H       2.50409e+00     2.26230e+00     1.04573e+01
O       1.41695e+01     7.78065e+00    -9.67240e+00
H       1.34928e+01     7.74511e+00    -1.04020e+01
H       1.48063e+01     8.48328e+00    -9.94186e+00
O       8.13013e+00    -4.19399e+00     1.14508e+01
H       8.92630e+00    -3.69329e+00     1.10755e+01
H       8.43713e+00    -4.98967e+00     1.19230e+01
O       6.55210e+00     4.75814e+00    -5.86531e+00
H       7.06375e+00     5.32147e+00    -5.27112e+00
H       6.83179e+00     4.81649e+00    -6.84563e+00
O       1.03327e+00    -3.60727e+00    -2.13171e+00
H       1.32302e+00    -2.67473e+00    -2.20594e+00
H       1.23387e-01    -3.71384e+00    -2.57011e+00
O       2.75030e+00     1.28019e+01    -1.13810e+00
H       3.38242e+00     1.20220e+01    -9.91366e-01
H       2.52124e+00     1.30062e+01    -2.19240e-01
O      -8.48764e+00     2.21576e+00     6.94162e+00
H      -9.01196e+00     2.17925e+00     7.79530e+00
H      -8.90415e+00     1.75292e+00     6.18326e+00
O       4.51222e+00    -8.76410e+00     1.10942e+01
H       3.93257e+00    -9.52217e+00     1.08247e+01
H       5.40133e+00    -9.20245e+00     1.11299e+01
O       1.30456e+01    -1.65751e+00     3.66768e-01
H       1.33648e+01    -8.05056e-01     8.56830e-01
H       1.37607e+01    -2.28290e+00     5.43496e-01
O      -2.13150e+00    -1.20347e+01    -4.42901e+00
H      -2.78817e+00    -1.22214e+01    -5.14536e+00
H      -1.87694e+00    -1.29568e+01    -4.13637e+00
O       2.09279e+00    -1.10356e-01    -4.79774e+00
H       2.69724e+00     7.13510e-01    -4.87818e+00
H       2.04425e+00    -2.78530e-01    -3.84643e+00
O      -1.78217e+00     1.15689e+01     8.60767e+00
H      -1.61747e+00     1.21528e+01     7.86228e+00
H      -1.20135e+00     1.19446e+01     9.36451e+00
O       1.17940e+01    -1.16227e+01     3.05006e+00
H       1.17667e+01    -1.19690e+01     3.91254e+00
H       1.09838e+01    -1.18824e+01     2.59919e+00
O      -9.00698e+00     3.99835e+00     8.68950e-02
H      -8.52822e+00     4.79692e+00     4.27993e-01
H      -9.38113e+00     4.27766e+00    -7.91628e-01
O      -8.41737e+00    -1.26314e+01     4.37715e+00
H      -7.43707e+00    -1.27130e+01     4.31299e+00
H      -8.57442e+00    -1.16414e+01     4.64916e+00
O      -1.03382e+00     3.04085e+00    -6.59835e+00
H      -7.93474e-01     2.11026e+00    -6.57598e+00
H      -1.51373e+00     3.23707e+00    -7.47508e+00
O       4.47066e+00    -9.97840e+00    -9.18404e+00
H       3.68066e+00    -1.01167e+01    -9.65729e+00
H       5.28859e+00    -1.01449e+01    -9.78951e+00
O      -5.27932e-01     8.53265e+00     3.09511e+00
H      -1.03632e+00     8.19604e+00     2.33210e+00
H       1.34954e-01     7.80964e+00     3.28543e+00
O       9.53047e+00     1.07142e+01     1.26579e+01
H       1.00647e+01     1.04666e+01     1.35009e+01
H       1.01010e+01     1.07185e+01     1.19596e+01
O       8.41964e+00    -9.15310e+00     8.38813e+00
H       8.39939e+00    -8.17064e+00     8.39655e+00
H       8.00173e+00    -9.39035e+00     7.54068e+00
O       1.68939e+00    -1.25144e+01     3.52204e+00
H       1.79463e+00    -1.31524e+01     2.78234e+00
H       2.34390e+00    -1.28517e+01     4.14935e+00
O       4.55857e+00    -6.95634e+00    -9.21813e-01
H       4.44597e+00    -6.01971e+00    -5.95688e-01
H       3.91577e+00    -6.92912e+00    -1.68477e+00
O      -1.06860e+01    -1.41750e+01    -1.24923e+01
H      -1.10917e+01    -1.33723e+01    -1.21275e+01
H      -1.14339e+01    -1.47044e+01    -1.28302e+01
O      -2.86174e+00     4.85695e+00     9.03552e+00
H      -1.92780e+00     4.70679e+00     8.75659e+00
H      -3.13002e+00     3.89944e+00     9.23090e+00
O      -3.42926e+00    -9.78061e+00    -7.63205e+00
H      -3.67234e+00    -9.33745e+00    -8.50268e+00
H      -2.95888e+00    -9.19052e+00    -7.04852e+00
O      -5.08581e+00     5.47922e-01    -4.27571e+00
H      -5.08323e+00     8.27210e-01    -5.20346e+00
H      -5.59750e+00     1.25242e+00    -3.77496e+00
O      -4.34246e+00     6.14539e+00     7.07269e+00
H      -3.61604e+00     6.32434e+00     6.40860e+00
H      -3.96028e+00     5.86697e+00     7.96686e+00
O      -9.26746e+00     8.27717e-01    -7.54560e+00
H      -8.86336e+00     1.64891e+00    -7.20588e+00
H      -1.02206e+01     7.28083e-01    -7.29792e+00
O       6.02811e+00     6.52037e+00    -1.03098e+01
H       6.28462e+00     5.96202e+00    -1.10653e+01
H       6.36174e+00     7.42804e+00    -1.05570e+01
O       8.73505e-01     1.73102e+00     7.63590e+00
H       1.45884e+00     1.63101e+00     8.42221e+00
H       1.47120e+00     1.62563e+00     6.84400e+00
O      -9.07406e+00     1.08538e+01     2.02101e+00
H      -9.50891e+00     1.00321e+01     2.42567e+00
H      -8.77664e+00     1.13255e+01     2.87310e+00
O       2.30962e+00     1.39432e+01    -1.04038e+01
H       1.82380e+00     1.32775e+01    -9.90806e+00
H       1.69448e+00     1.46045e+01    -1.08387e+01
O       5.85231e-01     9.62467e+00     5.34070e+00
H      -4.21471e-02     9.63749e+00     4.55754e+00
H       1.27312e+00     9.00570e+00     5.05473e+00
O       5.35792e+00     1.20959e+00    -7.01308e-02
H       4.40444e+00     1.07258e+00     2.21496e-01
H       5.99335e+00     9.04796e-01     6.56373e-01
O       7.37340e+00    -1.01218e+01     6.13131e+00
H       7.57382e+00    -1.10460e+01     6.14637e+00
H       7.96683e+00    -9.87880e+00     5.40371e+00
O       8.04380e+00     4.60202e+00     8.37854e+00
H       7.12501e+00     4.45830e+00     8.74576e+00
H       8.10752e+00     5.55268e+00     8.31359e+00
O       6.09809e+00    -1.21485e+01    -2.83738e+00
H       5.46103e+00    -1.15441e+01    -3.29381e+00
H       6.80036e+00    -1.15517e+01    -2.42392e+00
O       2.16588e+00    -1.13720e+01     7.97712e+00
H       2.91110e+00    -1.14741e+01     7.28288e+00
H       1.51031e+00    -1.06370e+01     7.68803e+00
O       3.64656e-01    -8.43200e+00     2.85581e+00
H       4.18974e-01    -8.39771e+00     3.83176e+00
H      -3.97302e-01    -8.90477e+00     2.60124e+00
O       6.59525e+00    -6.20016e-01    -1.54693e+00
H       6.09410e+00     3.20517e-02    -1.04221e+00
H       7.15350e+00     2.43811e-02    -2.10852e+00
O      -8.64931e+00    -2.37496e+00     1.27994e+00
H      -8.48945e+00    -1.69565e+00     5.26846e-01
H      -7.98359e+00    -3.03274e+00     1.05292e+00
O      -4.48058e+00     1.12078e+01     8.57714e+00
H      -3.55932e+00     1.15008e+01     8.81011e+00
H      -4.43713e+00     1.02175e+01     8.40587e+00
O       1.14111e+01    -1.74356e+00    -4.89147e+00
H       1.14146e+01    -1.83034e+00    -5.85634e+00
H       1.08224e+01    -2.48142e+00    -4.45679e+00
O      -5.07528e+00     2.43623e+00     1.24489e+00
H      -4.62305e+00     2.28400e+00     3.26095e-01
H      -4.95482e+00     3.40382e+00     1.44984e+00
O       9.37446e+00     1.32520e+00    -9.30198e+00
H       1.00004e+01     1.89428e+00    -9.82968e+00
H       9.61686e+00     1.12396e+00    -8.35513e+00
O      -3.27013e+00     4.86277e+00    -5.32770e-01
H      -2.69573e+00     5.13441e+00    -1.28276e+00
H      -3.69972e+00     4.04099e+00    -8.34187e-01
O      -7.92776e+00    -7.70774e+00    -2.32107e+00
H      -8.67905e+00    -7.43929e+00    -2.94250e+00
H      -8.31894e+00    -8.59145e+00    -2.07874e+00
O      -5.07736e+00     8.50022e+00     8.34098e+00
H      -4.63399e+00     7.84094e+00     7.74355e+00
H      -5.99566e+00     8.64215e+00     7.98181e+00
O      -1.37356e+00     4.91120e+00     1.30384e+00
H      -2.09694e+00     4.86078e+00     6.77751e-01
H      -1.85719e+00     4.59563e+00     2.13437e+00
O       1.13292e+01     2.80420e+00     1.98285e-01
H       1.21733e+01     3.14134e+00     5.20178e-01
H       1.09082e+01     3.55285e+00    -2.71074e-01
O       1.53422e+00     1.34023e+01    -3.51411e+00
H       1.74955e+00     1.32308e+01    -2.56887e+00
H       2.22229e+00     1.40280e+01    -3.89926e+00
O      -5.02623e+00    -3.71846e+00    -2.06596e+00
H      -4.63181e+00    -4.48587e+00    -2.53117e+00
H      -5.43158e+00    -3.17632e+00    -2.80033e+00
O       3.25761e-02     1.26148e+01     1.04028e+01
H       2.68639e-01     1.20439e+01     1.11610e+01
H       8.35796e-01     1.30829e+01     1.01306e+01
O       4.11694e+00     1.33270e+01    -6.80514e+00
H       4.40088e+00     1.38098e+01    -7.66632e+00
H       4.50477e+00     1.24569e+01    -6.92752e+00
O       4.18373e+00    -7.52251e+00    -8.71331e+00
H       3.92201e+00    -7.35851e+00    -9.67228e+00
H       4.40676e+00    -8.52311e+00    -8.77298e+00
O      -8.57522e+00    -1.12195e+01    -8.02025e+00
H      -8.22840e+00    -1.19713e+01    -8.52548e+00
H      -8.91897e+00    -1.16259e+01    -7.18544e+00
O      -1.03305e+01    -1.02243e+01    -9.75158e+00
H      -1.11537e+01    -9.71213e+00    -9.44136e+00
H      -9.79580e+00    -1.06230e+01    -9.04089e+00
O       9.36896e+00     3.44687e+00    -5.26485e+00
H       8.48357e+00     3.78631e+00    -5.42409e+00
H       9.15679e+00     2.91726e+00    -4.44174e+00
O       5.70084e+00    -1.84165e+00     6.54494e+00
H       4.76665e+00    -1.61198e+00     6.32871e+00
H       6.34112e+00    -1.72275e+00     5.79804e+00
O      -6.92844e+00     3.27189e+00    -1.00010e+01
H      -7.82492e+00     2.82388e+00    -1.01143e+01
H      -6.76656e+00     3.34066e+00    -9.07509e+00
O       4.26478e+00    -8.93451e+00     2.88508e+00
H       3.65923e+00    -9.65981e+00     2.60933e+00
H       4.56805e+00    -9.12139e+00     3.80320e+00
O       1.43341e+01     8.74848e+00    -4.07558e+00
H       1.42204e+01     8.62972e+00    -5.05335e+00
H       1.45304e+01     7.81722e+00    -3.83187e+00
O      -4.17191e+00    -1.21852e+00     9.43019e+00
H      -3.28847e+00    -1.05297e+00     9.83124e+00
H      -3.99545e+00    -9.78517e-01     8.47190e+00
O      -4.13423e+00     2.39914e+00    -1.29971e+00
H      -4.92809e+00     2.41295e+00    -1.88858e+00
H      -3.50365e+00     1.87016e+00    -1.77752e+00
O      -1.85358e+00    -1.03469e+01    -1.35307e+01
H      -1.46876e+00    -9.45436e+00    -1.33800e+01
H      -1.10073e+00    -1.09494e+01    -1.36776e+01
O       5.06414e+00     8.80286e+00    -1.13519e+00
H       4.28103e+00     8.29536e+00    -7.34372e-01
H       5.20948e+00     8.51309e+00    -2.11351e+00
O       1.39493e+01    -2.35809e+00    -4.01524e+00
H       1.38120e+01    -3.23266e+00    -3.46533e+00
H       1.30366e+01    -2.17344e+00    -4.32037e+00
O      -1.81238e+00     7.53569e+00     7.77518e-01
H      -1.61361e+00     6.62638e+00     1.05123e+00
H      -1.20584e+00     7.72285e+00     1.04371e-02
O      -2.56682e+00     9.09798e+00    -6.04996e+00
H      -1.78317e+00     9.56037e+00    -6.50942e+00
H      -3.42336e+00     9.51431e+00    -6.43135e+00
O       3.06235e+00    -4.53742e+00    -1.15629e+01
H       2.47559e+00    -4.26729e+00    -1.08019e+01
H       3.10948e+00    -5.53626e+00    -1.14572e+01
O       3.46101e+00     9.57244e+00    -1.05844e+01
H       3.33158e+00     1.04358e+01    -1.10310e+01
H       4.46589e+00     9.35988e+00    -1.06930e+01
O      -3.85970e+00     8.21951e+00     1.06090e+01
H      -3.95921e+00     7.47656e+00     1.11693e+01
H      -4.49885e+00     8.05317e+00     9.90185e+00
O      -3.59525e+00     2.14749e+00     6.88579e+00
H      -3.31253e+00     2.14632e+00     7.83076e+00
H      -4.60931e+00     1.94073e+00     6.82403e+00
O      -1.25004e+01     8.81215e+00     1.11370e+01
H      -1.25772e+01     8.31034e+00     1.19607e+01
H      -1.17832e+01     8.29242e+00     1.06820e+01
O       9.99435e+00    -6.44995e+00    -7.54517e+00
H       1.05989e+01    -6.01035e+00    -6.91148e+00
H       9.12728e+00    -6.40943e+00    -7.13309e+00
O      -6.93177e+00    -5.44535e+00     1.01300e+01
H      -6.27065e+00    -4.75885e+00     1.01527e+01
H      -7.19918e+00    -5.69536e+00     1.10361e+01
O      -9.13708e+00     5.95068e+00    -3.83589e+00
H      -9.65034e+00     5.35915e+00    -3.18870e+00
H      -9.31943e+00     5.67684e+00    -4.74788e+00
O       1.28193e+01     7.46558e+00     8.41756e+00
H       1.27371e+01     6.88185e+00     9.18157e+00
H       1.32353e+01     6.93733e+00     7.71583e+00
O       1.11710e+01     9.56388e+00     5.35755e-01
H       1.17065e+01     9.79048e+00    -2.33823e-01
H       1.07875e+01     8.69818e+00     3.27911e-01
O       8.42314e+00     1.49434e+00     6.06890e+00
H       7.60540e+00     1.25354e+00     6.60529e+00
H       8.07044e+00     2.27012e+00     5.60352e+00
O      -9.41068e+00     2.00943e+00    -1.04790e+01
H      -9.17223e+00     1.08542e+00    -1.02089e+01
H      -1.00637e+01     2.31629e+00    -9.76457e+00
O      -6.03196e+00     7.54634e+00    -5.81488e+00
H      -6.70676e+00     7.25314e+00    -6.44469e+00
H      -5.65509e+00     8.31708e+00    -6.27711e+00
O       5.79592e+00     1.01502e+01     6.26065e+00
H       5.20411e+00     1.06401e+01     5.72297e+00
H       6.68803e+00     1.05787e+01     6.08391e+00
O       5.44265e+00     2.31850e+00     1.32423e+01
H       4.48095e+00     2.69592e+00     1.33022e+01
H       5.83234e+00     3.02376e+00     1.25930e+01
O      -8.62145e+00     9.36665e+00    -1.10051e+01
H      -8.33606e+00     1.02083e+01    -1.05382e+01
H      -9.27075e+00     9.60940e+00    -1.17569e+01
O       3.27928e+00    -7.36665e+00    -1.14603e+01
H       3.84079e+00    -7.58186e+00    -1.21815e+01
H       2.49157e+00    -7.97636e+00    -1.14117e+01
O      -3.62588e+00    -1.00179e+01     6.74528e+00
H      -4.23059e+00    -1.08042e+01     6.82460e+00
H      -3.46866e+00    -9.68901e+00     7.69443e+00
O       5.32714e+00     1.08999e+01     1.14068e+01
H       4.95803e+00     1.05109e+01     1.06200e+01
H       4.54998e+00     1.12095e+01     1.19448e+01
O       7.98415e+00     1.04106e+00    -3.25354e+00
H       8.93227e+00     7.21481e-01    -3.29263e+00
H       7.57414e+00     6.99501e-01    -4.10892e+00
O      -9.74543e+00    -6.82931e+00    -3.87137e+00
H      -9.28613e+00    -6.44859e+00    -4.65353e+00
H      -1.04041e+01    -7.52302e+00    -4.24539e+00
O      -4.34177e+00     7.59165e+00     1.30350e+00
H      -4.39145e+00     7.96835e+00     2.20620e+00
H      -3.42798e+00     7.69625e+00     9.86063e-01
O      -2.88826e+00    -1.95139e+00    -9.08578e+00
H      -2.69318e+00    -1.61631e+00    -8.15346e+00
H      -3.51864e+00    -1.36826e+00    -9.56541e+00
O       1.07804e+01     2.03753e+00     7.14706e+00
H       9.90550e+00     1.77773e+00     6.71365e+00
H       1.12501e+01     1.16614e+00     7.20646e+00
O       3.43263e+00    -2.17854e+00    -5.93015e+00
H       2.85072e+00    -1.68099e+00    -5.28320e+00
H       3.44245e+00    -3.11838e+00    -5.78846e+00
O       1.21364e+01     1.00625e+01    -2.28406e+00
H       1.26771e+01     9.56827e+00    -2.94665e+00
H       1.26844e+01     1.08871e+01    -2.16016e+00
O      -1.09022e+01    -6.83260e+00     4.53731e+00
H      -1.14573e+01    -6.47256e+00     3.73609e+00
H      -1.02840e+01    -7.41080e+00     4.04536e+00
O      -1.00802e+01     2.27160e+00    -4.05678e+00
H      -9.82917e+00     1.32643e+00    -3.85626e+00
H      -9.48988e+00     2.52014e+00    -4.77969e+00
O      -2.82040e+00     4.57625e+00     3.59086e+00
H      -2.66202e+00     5.24948e+00     4.31435e+00
H      -2.76485e+00     3.66396e+00     3.91420e+00
O       7.87102e-01    -3.73078e+00     4.87643e+00
H       1.03883e+00    -3.32973e+00     4.06002e+00
H      -2.25834e-01    -3.86848e+00     4.78492e+00
O       2.63454e+00     7.58586e+00    -1.23399e+01
H       2.79591e+00     8.36582e+00    -1.17308e+01
H       1.84132e+00     7.81269e+00    -1.28542e+01
O       7.75606e+00    -4.07964e+00    -4.51914e+00
H       7.26749e+00    -4.42121e+00    -3.73264e+00
H       7.10339e+00    -3.34537e+00    -4.81339e+00
O       3.52903e+00    -4.33090e+00    -1.29855e-01
H       2.60888e+00    -4.19458e+00     3.24307e-02
H       3.68789e+00    -3.58055e+00    -7.21682e-01
O      -5.89628e+00     5.02106e+00     5.07235e+00
H      -6.18279e+00     5.93256e+00     4.77730e+00
H      -5.47591e+00     5.29992e+00     5.96823e+00
O       2.59794e+00     8.13047e+00     4.51681e+00
H       2.24206e+00     7.19551e+00     4.31945e+00
H       3.43629e+00     7.95038e+00     4.93423e+00
1500
24.662 0.000 0.000 0.000 24.662 0.000 0.000 0.000 24.662
O       1.08793e+01     1.05444e+01    -9.83244e+00
H       1.01766e+01     1.02840e+01    -9.27477e+00
H       1.14360e+01     1.10336e+01    -9.27751e+00
O       1.36437e+01    -5.78622e+00     1.10999e+01
H       1.40228e+01    -6.58130e+00     1.05522e+01
H       1.42613e+01    -5.44553e+00     1.17503e+01
O       7.59761e+00    -6.83468e+00     5.46961e+00
H       7.80366e+00    -6.00269e+00     5.01713e+00
H       7.92299e+00    -6.64409e+00     6.43471e+00
O       5.03341e+00     1.02257e+01     8.92703e+00
H       5.30527e+00     1.02470e+01     7.95301e+00
H       5.62677e+00     9.56352e+00     9.33027e+00
O       4.99620e+00    -4.10615e+00     5.54180e+00
H       5.02602e+00    -3.20345e+00     5.84418e+00
H       5.92295e+00    -4.41432e+00     5.38563e+00
O      -3.86253e+00    -2.74105e+00     5.89009e+00
H      -3.76048e+00    -1.92515e+00     6.44059e+00
H      -4.41337e+00    -3.35901e+00     6.42535e+00
O       1.22512e+01     3.97402e+00     4.85450e+00
H       1.24463e+01     4.71166e+00     5.51403e+00
H       1.19051e+01     3.24066e+00     5.42649e+00
O      -3.97004e+00     5.57327e+00     1.14908e+01
H      -4.83827e+00     5.43585e+00     1.10237e+01
H      -3.26448e+00     5.38482e+00     1.08105e+01
O       7.53540e+00    -9.69167e+00     1.08713e+01
H       8.03374e+00    -9.76740e+00     9.99919e+00
H       7.52676e+00    -1.06206e+01     1.12110e+01
O       1.00282e+01     1.14184e+01     1.02797e+00
H       1.00279e+01     1.18786e+01     1.62070e-01
H       1.02683e+01     1.04979e+01     8.11473e-01
O      -1.28744e+00    -1.05588e+01    -5.00801e-01
H      -4.99096e-01    -9.91760e+00    -6.35715e-01
H      -1.56520e+00    -1.02847e+01     3.39526e-01
O      -2.21226e+00    -1.01312e+01     2.22616e+00
H      -2.99486e+00    -9.58199e+00     2.44994e+00
H      -1.97645e+00    -1.07054e+01     2.96496e+00
O       2.73093e+00     3.12579e+00     1.35993e+01
H       3.04387e+00     4.01583e+00     1.39719e+01
H       2.62762e+00     3.31736e+00     1.26967e+01
O       1.05966e+01     5.90249e+00    -1.06869e+01
H       1.00378e+01     6.20625e+00    -1.14861e+01
H       1.02162e+01     6.18517e+00    -9.81728e+00
O       1.33971e+01    -7.05720e+00     1.13295e+00
H       1.40126e+01    -6.58189e+00     5.26903e-01
H       1.29916e+01    -7.81480e+00     6.55823e-01
O       5.87802e+00     2.23622e+00    -6.48380e+00
H       6.04245e+00     3.17856e+00    -6.17774e+00
H       6.06712e+00     2.19076e+00    -7.45426e+00
O       3.88150e+00    -1.08566e+01     1.01937e+01
H       3.50302e+00    -1.15265e+01     1.07809e+01
H       3.21640e+00    -1.08372e+01     9.43642e+00
O      -8.00833e-01    -6.03309e+00    -4.92953e+00
H      -1.01207e+00    -5.77079e+00    -4.03205e+00
H       8.94533e-03    -6.60637e+00    -4.83356e+00
O      -3.47531e+00     1.11982e+01     3.77263e+00
H      -2.70546e+00     1.16711e+01     4.11005e+00
H      -3.21410e+00     1.10601e+01     2.80311e+00
O      -1.24513e+01    -8.08309e+00    -5.44578e+00
H      -1.24616e+01    -8.92685e+00    -4.92860e+00
H      -1.31829e+01    -7.50176e+00    -5.01860e+00
O      -6.31083e+00    -6.99293e+00     6.78050e+00
H      -5.80541e+00    -6.24242e+00     7.10112e+00
H      -5.56723e+00    -7.51544e+00     6.40323e+00
O      -1.28322e+01    -4.67120e+00     9.62813e+00
H      -1.23006e+01    -4.43935e+00     8.82997e+00
H      -1.21584e+01    -5.01125e+00     1.02219e+01
O      -1.05755e+01     2.25273e+00     9.74315e+00
H      -1.06359e+01     2.46157e+00     1.06963e+01
H      -1.03696e+01     1.29915e+00     9.74480e+00
O       1.20568e+01    -1.25913e+01     8.68495e+00
H       1.29725e+01    -1.25740e+01     8.91903e+00
H       1.20925e+01    -1.25828e+01     7.68644e+00
O       9.74472e+00    -8.37564e+00     1.58565e+00
H       9.16029e+00    -8.67781e+00     2.33053e+00
H       9.55551e+00    -7.46959e+00     1.39268e+00
O      -9.39838e+00     1.01268e+01    -4.48520e+00
H      -8.48610e+00     9.68022e+00    -4.43106e+00
H      -9.99476e+00     9.48818e+00    -4.07692e+00
O       2.36999e+00    -1.99751e+00    -8.26755e+00
H       1.87470e+00    -1.13826e+00    -8.45814e+00
H       2.92564e+00    -1.87634e+00    -7.47088e+00
O      -7.98022e+00     6.34450e+00     1.36335e+00
H      -7.56727e+00     6.95461e+00     6.98943e-01
H      -7.22762e+00     5.72471e+00     1.57944e+00
O      -1.96893e-01     6.87368e+00    -1.17015e+01
H      -4.40820e-01     6.45656e+00    -1.08443e+01
H      -9.26123e-01     7.47687e+00    -1.18686e+01
O       1.29834e+00    -7.69166e+00    -3.57178e+00
H       9.62504e-01    -8.23679e+00    -2.87552e+00
H       1.62011e+00    -6.85514e+00    -3.16168e+00
O      -1.30103e+01     3.56206e+00     9.24845e+00
H      -1.31020e+01     3.49633e+00     8.26911e+00
H      -1.21955e+01     3.09541e+00     9.41625e+00
O      -5.89797e+00    -2.42996e+00    -3.72389e+00
H      -6.56087e+00    -2.69754e+00    -4.40530e+00
H      -5.81098e+00    -1.41694e+00    -3.76870e+00
O      -6.75218e+00     8.53828e+00     5.24520e+00
H      -7.45263e+00     8.27387e+00     4.58072e+00
H      -7.17825e+00     8.60852e+00     6.10977e+00
O       5.49120e+00    -4.11402e+00    -2.15509e+00
H       5.02525e+00    -4.97607e+00    -1.93318e+00
H       5.98355e+00    -3.92459e+00    -1.28901e+00
O       1.01804e+01    -3.77514e+00     2.56078e+00
H       9.28369e+00    -4.21197e+00     2.65191e+00
H       1.02554e+01    -3.19262e+00     3.33567e+00
O       9.57718e+00     6.43744e+00     1.17572e+01
H       9.18024e+00     5.66183e+00     1.13478e+01
H       1.03432e+01     6.66137e+00     1.11631e+01
O      -1.61400e+00    -1.16556e+01    -6.70682e+00
H      -1.30496e+00    -1.26220e+01    -6.60176e+00
H      -1.65473e+00    -1.15885e+01    -7.68784e+00
O       1.16991e+01     4.75883e+00    -2.53435e+00
H       1.09996e+01     4.71140e+00    -1.86879e+00
H       1.16369e+01     3.87281e+00    -3.06921e+00
O      -1.01698e+01     1.07690e+01     5.92294e+00
H      -9.35146e+00     1.11540e+01     5.57238e+00
H      -9.99885e+00     1.03700e+01     6.90433e+00
O       9.02909e+00    -1.05938e+01    -6.50292e+00
H       8.46292e+00    -1.01310e+01    -5.89755e+00
H       9.71350e+00    -9.94349e+00    -6.83462e+00
O       4.75692e+00    -8.62449e+00    -1.07427e+00
H       4.42655e+00    -7.75610e+00    -7.56120e-01
H       4.26554e+00    -9.31131e+00    -5.86403e-01
O      -1.48759e+00     8.86231e+00     9.35742e+00
H      -2.18196e+00     8.52911e+00     9.90678e+00
H      -1.73357e+00     9.76878e+00     9.02964e+00
O      -5.99132e+00    -7.81158e+00    -3.66180e-01
H      -5.69080e+00    -8.69827e+00    -7.06008e-01
H      -6.76078e+00    -7.59331e+00    -9.75638e-01
O      -6.87408e+00    -8.60835e+00    -7.19480e+00
H      -5.96496e+00    -8.99787e+00    -7.40828e+00
H      -7.51446e+00    -9.34032e+00    -7.38958e+00
O      -7.17495e+00    -7.99724e-01     2.71719e+00
H      -6.38859e+00    -1.32232e+00     3.03513e+00
H      -7.03538e+00    -7.43114e-01     1.74971e+00
O       1.92879e+00    -5.20230e+00     1.06682e+01
H       2.09225e+00    -4.97603e+00     1.16463e+01
H       2.84567e+00    -5.51721e+00     1.04698e+01
O       1.07453e+01     5.40561e-01    -2.84708e+00
H       1.07942e+01    -3.03521e-01    -3.28725e+00
H       1.12568e+01     5.20345e-01    -1.99510e+00
O       1.01574e+01     1.00427e+01     5.43343e+00
H       1.04653e+01     9.47491e+00     6.15212e+00
H       1.05416e+01     9.60792e+00     4.64621e+00
O       1.70331e+00    -8.23102e+00    -1.07489e+01
H       1.37159e+00    -7.89986e+00    -9.88077e+00
H       9.12426e-01    -8.32626e+00    -1.13856e+01
O      -1.04758e+01    -9.60941e+00     1.10570e+01
H      -9.71498e+00    -9.57588e+00     1.17258e+01
H      -1.13085e+01    -9.67115e+00     1.15939e+01
O       8.33755e+00     1.19901e+01     9.52391e+00
H       9.04152e+00     1.26243e+01     9.38757e+00
H       8.13109e+00     1.19835e+01     1.04582e+01
O      -6.49098e+00    -4.82887e+00     2.85324e+00
H      -6.76365e+00    -5.44424e+00     3.56741e+00
H      -6.04010e+00    -4.01365e+00     3.17406e+00
O      -1.35671e+01    -8.84788e+00    -7.67013e+00
H      -1.31900e+01    -8.46571e+00    -6.81872e+00
H      -1.41731e+01    -8.05043e+00    -7.89777e+00
O       8.30904e+00    -8.87504e+00     3.90177e+00
H       7.51633e+00    -8.84905e+00     3.35056e+00
H       8.33465e+00    -8.08467e+00     4.50058e+00
O      -1.21906e+01     8.06054e+00    -6.36184e+00
H      -1.15427e+01     8.63004e+00    -6.90177e+00
H      -1.29589e+01     8.67688e+00    -6.18648e+00
O       2.48872e+00    -2.88118e+00     9.21288e+00
H       3.47919e+00    -2.99942e+00     9.25279e+00
H       2.09596e+00    -3.56188e+00     9.71232e+00
O       1.15211e+01    -9.63944e+00     1.18035e+01
H       1.11350e+01    -9.97944e+00     1.09967e+01
H       1.17964e+01    -1.04149e+01     1.23617e+01
O       5.08266e+00     3.52543e+00    -7.11032e-01
H       5.11461e+00     2.54435e+00    -4.80148e-01
H       4.56674e+00     3.47942e+00    -1.56390e+00
O      -1.21462e+01    -4.41458e+00    -6.69993e+00
H      -1.25871e+01    -3.56326e+00    -6.75404e+00
H      -1.12816e+01    -4.24413e+00    -6.26875e+00
O       7.44785e+00    -4.38292e+00     3.79458e+00
H       7.14562e+00    -3.43288e+00     3.90742e+00
H       6.81504e+00    -4.75641e+00     3.11852e+00
O       8.24755e+00     8.76075e+00     1.19919e+01
H       8.81854e+00     8.00529e+00     1.21555e+01
H       8.80945e+00     9.63282e+00     1.20832e+01
O      -7.45368e+00     1.10342e+01     1.54816e-01
H      -7.08565e+00     1.01432e+01    -2.89824e-02
H      -8.25851e+00     1.09855e+01     7.51408e-01
O       9.94035e+00    -4.82294e+00    -9.78909e+00
H       9.49779e+00    -5.35937e+00    -1.05122e+01
H       9.70534e+00    -5.30118e+00    -8.93168e+00
O      -2.94790e+00    -8.46744e-01    -7.46356e-01
H      -3.93611e+00    -8.60631e-01    -7.41922e-01
H      -2.73001e+00    -1.56739e-01    -1.47711e+00
O       6.56167e+00    -4.64418e+00     9.58807e+00
H       5.76711e+00    -5.24833e+00     9.76435e+00
H       7.09790e+00    -4.50929e+00     1.04209e+01
O       1.24224e+01    -1.01785e+01     5.58221e+00
H       1.23071e+01    -1.11001e+01     5.90293e+00
H       1.24006e+01    -9.50186e+00     6.30100e+00
O      -7.94656e+00    -4.45614e+00     6.88248e-01
H      -7.25174e+00    -4.25425e+00    -3.31884e-03
H      -7.40999e+00    -4.78477e+00     1.45797e+00
O       2.35340e+00     1.39594e+01    -6.61873e+00
H       1.94929e+00     1.37715e+01    -5.74046e+00
H       3.21505e+00     1.35762e+01    -6.64872e+00
O       3.91305e+00    -1.26143e+01     4.64789e+00
H       4.46209e+00    -1.24877e+01     3.79386e+00
H       4.15828e+00    -1.18537e+01     5.26070e+00
O       3.06123e+00     7.72623e+00     5.23093e-04
H       2.97722e+00     8.25048e+00     8.03280e-01
H       3.30877e+00     6.78753e+00     2.12803e-01
O      -1.21060e+01    -1.30639e+01    -7.65589e+00
H      -1.27502e+01    -1.28719e+01    -6.90317e+00
H      -1.19633e+01    -1.21764e+01    -8.04478e+00
O       1.31438e+01    -9.30370e+00    -2.03298e+00
H       1.33918e+01    -8.47377e+00    -2.44400e+00
H       1.25210e+01    -9.04537e+00    -1.28497e+00
O      -6.28323e+00     1.15488e+01     1.04669e+01
H      -7.25143e+00     1.15346e+01     1.03994e+01
H      -5.95527e+00     1.15111e+01     9.55296e+00
O       1.91764e+00    -7.85360e+00    -8.03975e+00
H       2.91817e+00    -7.90871e+00    -8.16483e+00
H       1.77280e+00    -8.71491e+00    -7.58168e+00
O       1.00726e+01     1.15739e+00    -6.84699e+00
H       9.30031e+00     8.72700e-01    -6.26553e+00
H       1.01752e+01     2.09235e+00    -6.57077e+00
O      -3.51108e+00    -4.24189e+00    -2.68660e-01
H      -2.76013e+00    -4.64025e+00    -7.49837e-01
H      -3.88096e+00    -4.97381e+00     3.52672e-01
O      -9.13476e+00     1.16714e+01    -2.09433e+00
H      -9.12506e+00     1.11767e+01    -2.94485e+00
H      -8.45068e+00     1.12519e+01    -1.45332e+00
O       8.22650e+00    -1.05222e+01    -2.21214e+00
H       8.01028e+00    -9.68855e+00    -1.59538e+00
H       8.32378e+00    -1.00479e+01    -3.08550e+00
O       1.30609e+01     5.76487e+00    -7.74206e+00
H       1.22445e+01     5.97604e+00    -7.26978e+00
H       1.33157e+01     6.54317e+00    -8.27332e+00
O      -5.11802e+00     4.96399e+00    -5.02581e+00
H      -4.76628e+00     5.91440e+00    -5.14843e+00
H      -5.70984e+00     5.13062e+00    -4.24507e+00
O      -9.46191e+00    -1.18479e+01    -4.85286e+00
H      -9.33741e+00    -1.27767e+01    -5.02298e+00
H      -8.95489e+00    -1.16296e+01    -4.04479e+00
O      -1.10386e+01     2.32926e+00    -1.22367e+01
H      -1.03481e+01     2.30238e+00    -1.15473e+01
H      -1.18449e+01     1.76912e+00    -1.20447e+01
O      -1.18443e+01     5.01564e+00    -1.20503e+01
H      -1.23224e+01     5.04250e+00    -1.12494e+01
H      -1.15259e+01     4.12081e+00    -1.21175e+01
O      -5.17144e+00    -2.69314e+00     3.56098e+00
H      -4.41376e+00    -2.80075e+00     2.93116e+00
H      -4.83056e+00    -2.53993e+00     4.44671e+00
O       4.56286e+00    -2.42905e+00    -9.69317e+00
H       4.22648e+00    -3.10184e+00    -1.03234e+01
H       3.72978e+00    -2.06274e+00    -9.30608e+00
O      -8.45305e+00    -9.15845e+00    -1.18557e+01
H      -7.60102e+00    -9.57355e+00    -1.21265e+01
H      -8.68683e+00    -9.42070e+00    -1.09043e+01
O       7.60013e+00     1.02806e+01     1.98795e+00
H       7.53340e+00     9.78605e+00     1.12330e+00
H       8.32965e+00     1.08774e+01     1.82287e+00
O       9.92644e+00    -1.22015e+01    -1.31085e+00
H       9.44693e+00    -1.14239e+01    -1.68477e+00
H       1.08600e+01    -1.20277e+01    -1.45979e+00
O      -3.75789e-01     5.43679e+00    -9.32764e+00
H      -1.16689e-01     4.50940e+00    -9.55358e+00
H       4.99230e-01     5.77097e+00    -8.94723e+00
O      -3.28946e+00    -2.99071e+00    -4.45006e+00
H      -4.19868e+00    -2.69670e+00    -4.18116e+00
H      -3.37443e+00    -3.68407e+00    -5.17916e+00
O      -2.71748e+00    -3.07159e+00     2.22058e+00
H      -2.48617e+00    -2.07960e+00     2.02176e+00
H      -2.84764e+00    -3.54748e+00     1.35232e+00
O      -5.15538e+00     7.05805e+00    -1.72789e+00
H      -4.70481e+00     6.56625e+00    -1.02328e+00
H      -4.44015e+00     7.67358e+00    -1.94373e+00
O       9.49586e+00     4.39247e+00     3.93897e+00
H       8.85661e+00     3.95768e+00     4.55118e+00
H       1.04139e+01     4.34981e+00     4.33393e+00
O       8.77876e-01     1.06575e+01     1.25059e+01
H       8.35374e-01     1.05300e+01     1.34581e+01
H       8.70766e-01     9.75841e+00     1.20655e+01
O       2.12042e+00     5.26169e-01    -1.00618e-01
H       1.82733e+00     1.40815e+00    -3.37687e-01
H       1.45409e+00     1.62186e-01     5.44618e-01
O       9.20245e+00    -6.13834e+00    -2.17434e-01
H       8.87573e+00    -6.79000e+00    -8.92649e-01
H       1.00559e+01    -5.74962e+00    -4.61455e-01
O       1.12169e+01    -1.09452e+01    -9.05343e+00
H       1.11522e+01    -1.00386e+01    -8.62017e+00
H       1.03922e+01    -1.13788e+01    -8.77630e+00
O      -8.82944e-01    -2.17753e+00     1.42671e+01
H      -1.74005e+00    -1.97126e+00     1.47470e+01
H      -4.04663e-01    -2.89203e+00     1.46917e+01
O      -2.99053e-01     9.70958e+00    -2.40932e+00
H      -3.14303e-01     1.06231e+01    -1.96627e+00
H       3.94094e-01     9.85204e+00    -3.05284e+00
O      -1.22706e+01    -8.10173e+00     7.42645e+00
H      -1.14886e+01    -7.77421e+00     7.90429e+00
H      -1.21378e+01    -7.47224e+00     6.69921e+00
O       7.22289e+00     1.06967e+01    -4.36781e+00
H       8.14677e+00     1.04198e+01    -4.19531e+00
H       6.98678e+00     1.13135e+01    -3.69002e+00
O       1.93675e+00    -5.80873e+00     5.15686e+00
H       2.45756e+00    -5.83804e+00     4.30877e+00
H       1.34072e+00    -4.99221e+00     4.99438e+00
O       8.66665e+00    -5.35602e-01    -1.06000e+01
H       8.65378e+00     3.24093e-01    -1.01499e+01
H       7.84166e+00    -5.98445e-01    -1.11371e+01
O      -9.34352e+00     5.67175e+00    -6.20620e+00
H      -8.84052e+00     6.50381e+00    -6.53730e+00
H      -1.01606e+01     5.73912e+00    -6.79431e+00
O       9.91162e+00     4.49550e+00    -6.00130e-01
H       9.67468e+00     5.38423e+00    -2.00405e-01
H       9.08606e+00     4.13729e+00    -9.78892e-01
O       1.13665e+00     6.72794e+00     3.85646e+00
H       1.15771e+00     5.96710e+00     3.25059e+00
H       1.06290e+00     6.20022e+00     4.68308e+00
O       3.32338e+00     9.46137e+00    -6.38796e+00
H       3.61063e+00     8.61969e+00    -5.90376e+00
H       4.22353e+00     9.87703e+00    -6.43889e+00
O      -7.37082e+00    -2.55551e+00    -6.30489e+00
H      -7.29249e+00    -3.13619e+00    -7.08757e+00
H      -8.29017e+00    -2.82169e+00    -5.93952e+00
O       6.42687e-01     5.35742e+00    -2.22688e+00
H      -2.76603e-01     5.22880e+00    -2.52808e+00
H       6.30495e-01     6.18737e+00    -1.67277e+00
O      -7.58031e+00    -6.34116e+00     4.61587e+00
H      -6.94728e+00    -6.60413e+00     5.28079e+00
H      -8.13718e+00    -5.66348e+00     5.12770e+00
O       1.34094e+01    -4.84526e+00    -1.99601e+00
H       1.41632e+01    -5.22332e+00    -1.46141e+00
H       1.32838e+01    -5.55704e+00    -2.67844e+00
O       9.51850e-01    -4.02531e+00    -9.71198e+00
H       7.25769e-01    -4.59265e+00    -8.96269e+00
H       1.53102e+00    -3.37025e+00    -9.23441e+00
O      -5.74360e+00     2.05720e+00    -1.07829e+01
H      -6.38501e+00     2.59729e+00    -1.02964e+01
H      -4.96700e+00     2.61696e+00    -1.08863e+01
O       8.42334e-01    -4.17193e+00     7.31882e-01
H       4.37717e-01    -3.96193e+00    -1.62118e-01
H       6.99082e-01    -3.32709e+00     1.32194e+00
O      -2.68266e+00    -1.28650e+01     1.44950e+00
H      -2.66202e+00    -1.18765e+01     1.44313e+00
H      -1.96451e+00    -1.31822e+01     7.97962e-01
O      -2.16720e+00    -6.35393e+00     6.03546e+00
H      -2.87162e+00    -6.98210e+00     5.70304e+00
H      -2.21921e+00    -5.61019e+00     5.44674e+00
O      -6.56924e+00    -3.77018e+00    -8.53045e+00
H      -6.62930e+00    -4.70935e+00    -8.73415e+00
H      -6.45416e+00    -3.34751e+00    -9.43098e+00
O      -8.51506e+00     3.08810e+00    -5.64952e+00
H      -7.60443e+00     3.32301e+00    -5.93632e+00
H      -8.98587e+00     3.95912e+00    -5.64110e+00
O      -6.08415e+00    -1.02143e+01     2.15465e+00
H      -7.06127e+00    -9.95730e+00     2.04048e+00
H      -5.91690e+00    -1.08682e+01     1.46640e+00
O       5.93083e-01    -7.37721e+00     9.65808e+00
H       1.09160e+00    -6.56989e+00     9.86923e+00
H      -2.44755e-01    -6.92938e+00     9.30121e+00
O      -1.22034e+01    -4.37605e+00    -9.49869e+00
H      -1.21184e+01    -4.65406e+00    -8.57604e+00
H      -1.31323e+01    -4.68577e+00    -9.70709e+00
O       8.27601e-01     6.12337e+00     6.52114e+00
H       2.24289e-01     6.90132e+00     6.82255e+00
H       1.57970e+00     6.22133e+00     7.14655e+00
O      -8.97009e+00     3.16264e-01     4.34475e+00
H      -8.87235e+00     1.22260e+00     4.66290e+00
H      -8.09657e+00     9.74428e-02     3.91078e+00
O       4.89456e+00     1.76690e+00     9.40185e+00
H       5.08227e+00     1.16269e+00     1.01464e+01
H       3.93715e+00     1.91707e+00     9.39812e+00
O      -7.77719e+00    -6.50043e+00    -1.13667e+01
H      -8.14185e+00    -7.45393e+00    -1.13777e+01
H      -8.60386e+00    -5.99379e+00    -1.11990e+01
O      -1.07170e+01    -3.51989e+00     3.44669e+00
H      -1.12658e+01    -4.21934e+00     3.10601e+00
H      -1.03435e+01    -3.05880e+00     2.63879e+00
O       4.01042e+00    -6.18739e+00     6.91097e+00
H       4.54563e+00    -5.41516e+00     6.58841e+00
H       3.11879e+00    -6.11797e+00     6.46989e+00
O      -7.21622e+00     7.87843e+00    -9.79233e+00
H      -7.82424e+00     8.54632e+00    -1.01832e+01
H      -7.05751e+00     7.06714e+00    -1.03480e+01
O       4.67795e+00     6.22481e+00     1.06691e+01
H       3.89583e+00     6.63619e+00     1.11220e+01
H       4.32854e+00     6.16265e+00     9.71519e+00
O       6.66201e+00     8.21287e+00     1.00219e+01
H       7.37290e+00     8.33311e+00     1.07369e+01
H       6.05202e+00     7.44365e+00     1.02950e+01
O      -8.64754e+00     7.55590e+00     3.69634e+00
H      -8.33737e+00     7.10953e+00     2.86021e+00
H      -9.47081e+00     8.03547e+00     3.54374e+00
O       1.00265e+00     4.58337e+00     2.34112e+00
H       1.85004e+00     4.55992e+00     1.85470e+00
H       2.69292e-01     4.68087e+00     1.67869e+00
O      -1.89069e+00     2.79904e+00     5.29681e+00
H      -1.56140e+00     3.36466e+00     6.08361e+00
H      -2.58763e+00     2.26197e+00     5.81826e+00
O      -7.45337e+00    -8.09579e+00     9.02310e+00
H      -7.89845e+00    -8.85987e+00     8.59519e+00
H      -6.93296e+00    -7.75651e+00     8.24947e+00
O      -8.48084e+00    -1.02158e+01     7.53001e+00
H      -7.60710e+00    -1.06200e+01     7.37056e+00
H      -8.91836e+00    -9.99145e+00     6.65888e+00
O       3.40753e+00     5.51172e+00    -1.04346e+01
H       4.35334e+00     5.84738e+00    -1.02196e+01
H       3.10431e+00     6.04888e+00    -1.11872e+01
O      -2.12704e+00    -4.17065e+00     4.60360e+00
H      -2.28793e+00    -3.87067e+00     3.68587e+00
H      -2.70774e+00    -3.51819e+00     5.18644e+00
O       3.26979e+00     2.33236e+00    -5.17243e+00
H       4.12198e+00     2.23458e+00    -5.65115e+00
H       2.69086e+00     2.93839e+00    -5.72753e+00
O      -3.36428e+00    -8.92338e+00     9.15200e+00
H      -4.06434e+00    -8.61246e+00     9.80167e+00
H      -2.64118e+00    -9.32358e+00     9.71908e+00
O       1.32961e+01     5.79805e-01     3.09347e+00
H       1.41420e+01     4.45179e-01     3.58420e+00
H       1.33304e+01     1.49178e+00     2.78786e+00
O      -5.71638e+00     9.99997e+00    -9.88662e+00
H      -6.01017e+00     9.08808e+00    -9.91388e+00
H      -5.10333e+00     1.00715e+01    -1.06840e+01
O       1.08202e+01    -5.86670e+00    -5.10270e+00
H       1.02937e+01    -5.31697e+00    -4.52761e+00
H       1.14183e+01    -5.29976e+00    -5.60672e+00
O       1.71043e-01     2.67784e+00    -9.79809e+00
H      -6.07203e-01     2.44435e+00    -1.04028e+01
H       9.77775e-01     2.69797e+00    -1.02839e+01
O       2.21265e+00    -7.83800e-01     1.10172e+01
H       3.19581e+00    -5.98242e-01     1.11650e+01
H       2.27836e+00    -1.43812e+00     1.03207e+01
O       1.36006e+00    -2.01098e+00     7.08340e+00
H       1.72912e+00    -2.30788e+00     7.94553e+00
H       9.23452e-01    -2.70312e+00     6.60989e+00
O      -8.19034e+00     5.81747e+00     9.13092e+00
H      -7.49319e+00     5.51735e+00     9.71823e+00
H      -8.56806e+00     4.92460e+00     8.84795e+00
O       2.24646e+00     4.17585e+00     1.11384e+01
H       1.31252e+00     4.55719e+00     1.11703e+01
H       2.82592e+00     4.79729e+00     1.06754e+01
O      -1.03769e+01    -3.75254e-01     8.97611e+00
H      -9.79251e+00    -6.33017e-01     8.23077e+00
H      -9.90755e+00    -8.17686e-01     9.72041e+00
O       7.51029e+00    -6.62655e+00    -5.81140e+00
H       7.49628e+00    -5.81812e+00    -5.22903e+00
H       6.68969e+00    -6.44109e+00    -6.29990e+00
O      -3.30042e+00    -6.80056e+00    -1.21639e+01
H      -3.89010e+00    -7.43510e+00    -1.27190e+01
H      -3.87056e+00    -6.01342e+00    -1.19568e+01
O      -2.96268e+00     3.43015e+00    -4.05102e+00
H      -2.31983e+00     3.20155e+00    -4.75936e+00
H      -3.72201e+00     3.73108e+00    -4.51820e+00
O      -8.59463e+00    -3.82469e+00     9.69908e+00
H      -8.03649e+00    -4.63034e+00     9.88280e+00
H      -8.59730e+00    -3.72843e+00     8.69989e+00
O       1.21187e+01     1.19799e+01     5.96080e+00
H       1.14482e+01     1.13970e+01     5.54731e+00
H       1.29864e+01     1.14847e+01     5.85583e+00
O      -4.17673e+00    -8.06936e+00     5.41343e+00
H      -4.07658e+00    -8.24769e+00     4.40710e+00
H      -3.92980e+00    -8.89464e+00     5.93939e+00
O      -5.51019e+00     5.15376e+00     2.44913e+00
H      -4.73193e+00     5.67563e+00     2.28959e+00
H      -5.50468e+00     5.08521e+00     3.43655e+00
O       6.14151e+00     8.82384e+00    -1.09285e+01
H       6.70063e+00     9.02394e+00    -1.16619e+01
H       6.51935e+00     9.35618e+00    -1.02147e+01
O       4.84160e+00     3.20185e+00     5.77509e+00
H       5.27499e+00     2.40485e+00     6.12554e+00
H       5.62407e+00     3.57544e+00     5.32551e+00
O       7.41984e+00    -1.21643e+01     1.22827e+01
H       6.60255e+00    -1.26965e+01     1.20017e+01
H       8.15732e+00    -1.27514e+01     1.23811e+01
O      -4.35037e-01     4.58898e+00     1.15276e+01
H      -4.95169e-01     5.35373e+00     1.20869e+01
H      -9.63047e-01     4.79088e+00     1.07378e+01
O       6.22416e+00     1.18941e+00     7.04142e+00
H       5.89743e+00     1.41920e+00     7.89700e+00
H       5.73689e+00     3.75778e-01     6.79407e+00
O      -4.40367e+00    -4.41638e+00    -1.12702e+01
H      -3.64486e+00    -4.00266e+00    -1.17609e+01
H      -4.12497e+00    -4.43289e+00    -1.03007e+01
O      -8.95371e+00     5.42116e+00     5.34340e+00
H      -8.10679e+00     5.24204e+00     5.78502e+00
H      -8.84701e+00     6.19409e+00     4.77926e+00
O       4.76189e+00    -1.61554e+00    -3.40819e+00
H       4.74219e+00    -2.56546e+00    -3.15458e+00
H       5.50705e+00    -1.26438e+00    -2.90750e+00
O       1.02120e+00    -8.96907e+00    -1.21757e+00
H       1.71081e+00    -9.53060e+00    -8.82573e-01
H       1.02858e+00    -8.20426e+00    -6.19693e-01
O       1.04080e+00     1.15506e+01     7.94791e+00
H       3.36571e-01     1.14806e+01     7.28680e+00
H       1.44443e+00     1.24383e+01     7.85923e+00
O       1.32261e+01    -7.77451e+00    -9.40198e+00
H       1.23797e+01    -7.98782e+00    -8.93881e+00
H       1.28828e+01    -7.40706e+00    -1.02944e+01
O       4.35064e+00     7.88715e+00     5.82660e+00
H       5.05173e+00     7.30272e+00     5.50733e+00
H       4.85095e+00     8.75192e+00     5.94354e+00
O       9.89290e+00     9.41152e+00    -5.41486e+00
H       1.01530e+01     1.03109e+01    -5.08362e+00
H       1.02009e+01     8.80838e+00    -4.71559e+00
O      -3.73868e+00     3.89389e+00    -1.08693e+01
H      -3.08529e+00     3.26079e+00    -1.12353e+01
H      -3.74428e+00     4.60640e+00    -1.14492e+01
O      -6.02148e+00    -1.15102e+01     6.55542e+00
H      -5.80260e+00    -1.23560e+01     6.97685e+00
H      -5.94272e+00    -1.17551e+01     5.60773e+00
O      -1.29426e+00    -1.17713e+01     4.15093e+00
H      -1.27499e+00    -1.16267e+01     5.12827e+00
H      -3.39506e-01    -1.19613e+01     3.92016e+00
O      -1.18815e+01    -1.13348e+01    -1.10378e+01
H      -1.25150e+01    -1.14769e+01    -1.03160e+01
H      -1.10735e+01    -1.09167e+01    -1.05754e+01
O      -4.46938e+00     2.68626e-01     2.20997e+00
H      -5.00250e+00     1.86116e-01     1.39232e+00
H      -4.74621e+00     1.16799e+00     2.49681e+00
O      -8.29801e+00    -5.97374e+00    -4.96062e+00
H      -7.46868e+00    -5.50545e+00    -4.81846e+00
H      -8.17358e+00    -6.33605e+00    -5.83964e+00
O       4.90747e-01     7.58663e+00    -5.98242e-01
H       3.65805e-01     8.46500e+00    -1.06646e+00
H       1.44647e+00     7.60707e+00    -3.02593e-01
O      -5.23747e+00    -8.13274e+00     1.08682e+01
H      -5.56206e+00    -9.04159e+00     1.11920e+01
H      -6.11891e+00    -7.69143e+00     1.06717e+01
O      -5.25955e-01     1.05442e+01    -6.49357e+00
H      -3.71383e-01     1.03064e+01    -7.40968e+00
H       3.45087e-01     1.05035e+01    -5.98081e+00
O       5.08341e-01    -1.03241e-01     2.03338e+00
H      -4.71380e-01    -2.44779e-01     1.92246e+00
H       5.78871e-01     7.69563e-01     2.46595e+00
O       5.16604e+00    -1.32035e+01     2.25593e+00
H       5.09878e+00    -1.26636e+01     1.37325e+00
H       6.06845e+00    -1.35475e+01     2.22976e+00
O      -9.78241e+00     2.87615e+00     5.24504e+00
H      -9.50395e+00     3.76096e+00     4.86089e+00
H      -1.06967e+01     2.83162e+00     4.96699e+00
O       7.10501e+00     5.14906e+00    -8.23369e+00
H       6.54726e+00     5.70227e+00    -8.83483e+00
H       6.99834e+00     4.23343e+00    -8.50814e+00
O      -3.90005e+00    -7.59827e+00    -9.48081e+00
H      -4.73723e+00    -7.13248e+00    -9.16634e+00
H      -3.85948e+00    -7.36758e+00    -1.04224e+01
O      -3.03690e+00     1.14657e+00    -2.40234e+00
H      -2.72997e+00     1.92168e+00    -2.85702e+00
H      -3.86479e+00     8.24091e-01    -2.84204e+00
O      -3.30703e+00    -1.17447e+01    -1.17326e+01
H      -3.32527e+00    -1.27374e+01    -1.18827e+01
H      -2.85510e+00    -1.13374e+01    -1.24779e+01
O      -6.08830e-01    -1.01980e+01    -4.88826e+00
H      -7.20696e-01    -1.07060e+01    -5.67670e+00
H      -1.26737e+00    -1.05651e+01    -4.22936e+00
O      -2.34479e+00    -1.08948e+01    -3.07732e+00
H      -2.02110e+00    -1.06851e+01    -2.15217e+00
H      -2.53906e+00    -1.18671e+01    -3.06369e+00
O       5.02247e+00    -2.46440e+00     9.10803e+00
H       5.19982e+00    -2.19664e+00     8.15301e+00
H       5.74999e+00    -3.06951e+00     9.31703e+00
O      -1.29038e+01     6.05224e+00     1.02520e+01
H      -1.24798e+01     6.01788e+00     1.11268e+01
H      -1.29881e+01     5.15638e+00     9.88129e+00
O      -9.74616e-01     7.97326e+00     6.92493e+00
H      -6.47614e-01     8.85431e+00     6.55053e+00
H      -1.40001e+00     8.23711e+00     7.77969e+00
O      -8.97132e+00    -8.22381e-01     6.85045e+00
H      -8.18536e+00    -3.68710e-01     7.06727e+00
H      -9.24571e+00    -4.50821e-01     5.91815e+00
O       4.14581e+00     7.24769e+00    -5.23378e+00
H       4.65534e+00     6.45128e+00    -5.53606e+00
H       3.36022e+00     6.72486e+00    -4.76007e+00
O      -1.39371e+01    -2.13674e+00    -7.04281e+00
H      -1.35203e+01    -1.58923e+00    -7.75560e+00
H      -1.48391e+01    -2.19691e+00    -7.40550e+00
O      -4.53865e+00    -6.29997e+00     1.38429e+00
H      -5.08607e+00    -6.75909e+00     7.44405e-01
H      -5.15584e+00    -5.77690e+00     1.98431e+00
O      -8.00278e+00    -3.36140e+00     7.21298e+00
H      -8.38595e+00    -2.43899e+00     7.18690e+00
H      -8.47832e+00    -3.82648e+00     6.46263e+00
O       1.22107e+01    -1.60776e+00    -9.42938e+00
H       1.24091e+01    -2.54171e+00    -9.30995e+00
H       1.18427e+01    -1.61910e+00    -1.03338e+01
O       8.21278e+00    -6.49643e+00     8.15854e+00
H       9.03207e+00    -6.45047e+00     8.72455e+00
H       7.45265e+00    -6.10030e+00     8.59888e+00
O       1.06879e+01     5.64381e+00    -6.36020e+00
H       1.04887e+01     4.73653e+00    -6.06359e+00
H       1.06441e+01     6.17711e+00    -5.52730e+00
O       3.50408e+00    -9.39123e+00    -3.40430e+00
H       2.82135e+00    -8.64274e+00    -3.52591e+00
H       4.01630e+00    -9.18880e+00    -2.56893e+00
O       1.01404e+01    -2.03476e+00     4.57914e+00
H       1.03343e+01    -1.10525e+00     4.35805e+00
H       9.48780e+00    -2.06333e+00     5.30898e+00
O       1.51921e+00     1.07126e+01    -4.83506e+00
H       1.71378e+00     1.16347e+01    -4.57443e+00
H       2.36272e+00     1.04509e+01    -5.30418e+00
O       2.93052e+00     1.21266e+01    -1.24020e+01
H       2.07577e+00     1.17004e+01    -1.23639e+01
H       2.89508e+00     1.28295e+01    -1.17568e+01
O       4.35229e-01    -9.12742e+00     7.27161e+00
H       4.14877e-01    -8.62424e+00     6.43850e+00
H       2.60538e-01    -8.52948e+00     7.99816e+00
O       9.28587e+00     9.23345e+00    -8.01864e+00
H       9.61102e+00     9.22963e+00    -7.09211e+00
H       9.46010e+00     8.32653e+00    -8.33881e+00
O       7.50366e+00    -1.03530e+01    -1.03695e+01
H       7.38370e+00    -1.10689e+01    -1.10372e+01
H       8.02263e+00    -9.64215e+00    -1.07740e+01
O      -6.24090e+00    -2.51101e+00    -1.08775e+01
H      -5.93517e+00    -1.56777e+00    -1.07357e+01
H      -5.48186e+00    -3.04824e+00    -1.11035e+01
O       2.39447e+00     5.60125e+00    -4.22842e+00
H       1.76902e+00     5.57593e+00    -3.48201e+00
H       1.91219e+00     5.25158e+00    -5.02150e+00
O      -1.10700e+01     5.53763e+00     6.88336e+00
H      -1.02629e+01     5.85128e+00     6.40192e+00
H      -1.06893e+01     5.05617e+00     7.65758e+00
O       9.95336e+00     1.58842e+00     1.01285e+01
H       1.04703e+01     1.50388e+00     1.09035e+01
H       1.04268e+01     2.28570e+00     9.59400e+00
O       9.46333e+00     9.98936e+00    -2.52250e+00
H       1.04192e+01     9.77845e+00    -2.43585e+00
H       9.43658e+00     1.08734e+01    -2.15412e+00
O       2.34704e+00     1.84825e+00     5.36507e+00
H       1.83700e+00     2.06489e+00     4.54182e+00
H       3.16706e+00     2.36679e+00     5.23818e+00
O      -6.64855e+00    -8.70108e+00    -4.23693e+00
H      -6.86417e+00    -8.58469e+00    -5.20350e+00
H      -5.69585e+00    -8.67787e+00    -3.97739e+00
O       1.13553e+01     8.64117e+00     3.48443e+00
H       1.13431e+01     8.89111e+00     2.54543e+00
H       1.08854e+01     7.75609e+00     3.45580e+00
O      -4.28532e+00    -8.54993e+00     2.92069e+00
H      -4.24341e+00    -7.69329e+00     2.47240e+00
H      -5.02268e+00    -8.97872e+00     2.49024e+00
O       1.66370e+00     3.54806e+00    -8.16651e-01
H       2.23580e+00     3.38530e+00    -1.59274e+00
H       1.13772e+00     4.24461e+00    -1.21962e+00
O      -7.47495e+00     8.10777e+00     7.86154e+00
H      -8.11846e+00     8.74102e+00     8.20148e+00
H      -7.85498e+00     7.27659e+00     8.12369e+00
O      -6.95787e+00    -2.93781e-01    -7.34885e+00
H      -7.78963e+00     2.07708e-01    -7.10568e+00
H      -7.06951e+00    -1.22116e+00    -7.02988e+00
O      -7.22907e+00     5.66450e+00    -1.10609e+01
H      -7.22145e+00     5.02893e+00    -1.03402e+01
H      -8.15813e+00     5.96534e+00    -1.12300e+01
O      -8.72783e+00    -1.61325e+00     1.07635e+01
H      -8.59797e+00    -2.54216e+00     1.04069e+01
H      -8.92347e+00    -1.84272e+00     1.17306e+01
O       1.01531e+00     1.29490e+01    -8.66293e+00
H       2.16225e-01     1.34124e+01    -8.95641e+00
H       1.38193e+00     1.32896e+01    -7.80209e+00
O       9.40704e+00     6.56728e+00    -8.42747e+00
H       8.49528e+00     6.21822e+00    -8.38453e+00
H       9.81082e+00     6.28408e+00    -7.53384e+00
O       1.14087e+01     1.20456e+00    -1.21423e+01
H       1.08889e+01     1.67067e+00    -1.14590e+01
H       1.12382e+01     1.56466e-01    -1.19695e+01
O       1.08802e+01    -4.31462e+00    -1.18636e+00
H       1.18322e+01    -4.50225e+00    -1.32277e+00
H       1.07605e+01    -3.50721e+00    -5.61601e-01
O       2.33665e+00     8.65246e+00    -8.66423e+00
H       2.80020e+00     9.05712e+00    -7.86691e+00
H       2.95774e+00     8.80982e+00    -9.39798e+00
O      -7.78635e+00     1.15652e+01    -8.31324e+00
H      -8.13693e+00     1.10165e+01    -7.58151e+00
H      -6.90122e+00     1.12684e+01    -8.58442e+00
O      -3.26747e+00    -4.87790e+00    -6.21841e+00
H      -2.59736e+00    -5.53078e+00    -5.93185e+00
H      -3.12556e+00    -4.50961e+00    -7.16204e+00
O       1.34295e+01    -3.29455e+00     7.96469e+00
H       1.43506e+01    -3.48605e+00     7.88434e+00
H       1.30554e+01    -3.14818e+00     7.03150e+00
O       4.42765e+00    -6.16705e+00     9.73924e+00
H       4.54022e+00    -7.06993e+00     1.01117e+01
H       4.27703e+00    -6.31437e+00     8.79165e+00
O      -4.12690e+00    -8.99291e+00    -3.63757e+00
H      -3.65404e+00    -9.72143e+00    -3.15538e+00
H      -3.58486e+00    -8.81651e+00    -4.37397e+00
O      -8.52642e+00    -9.27280e+00     1.54333e+00
H      -9.12451e+00    -1.00808e+01     1.81886e+00
H      -8.58095e+00    -9.34070e+00     5.38652e-01
O       1.06216e+01     1.20656e+01    -5.41434e+00
H       1.11450e+01     1.24843e+01    -4.70829e+00
H       9.97625e+00     1.26904e+01    -5.77404e+00
O       7.41822e+00    -8.50966e+00    -8.08193e-01
H       7.69473e+00    -8.59393e+00     1.15855e-01
H       6.42490e+00    -8.53482e+00    -7.41772e-01
O       8.47679e+00     3.97898e+00     1.11083e+01
H       8.91065e+00     3.13127e+00     1.09426e+01
H       8.16234e+00     4.18212e+00     1.01905e+01
O      -9.83390e+00     9.95933e+00    -7.26158e+00
H      -1.06022e+01     1.05455e+01    -7.30775e+00
H      -9.78125e+00     9.88536e+00    -6.25286e+00
O      -6.16529e+00     3.54401e+00    -6.90755e+00
H      -5.79839e+00     4.20781e+00    -6.25755e+00
H      -5.62768e+00     2.75421e+00    -6.76086e+00
O       4.64775e+00    -1.25982e+01    -6.72426e-01
H       4.54231e+00    -1.35597e+01    -8.38814e-01
H       5.14710e+00    -1.22881e+01    -1.47416e+00
O       5.03102e+00    -8.15551e+00     5.72442e+00
H       4.56995e+00    -7.42556e+00     6.19076e+00
H       5.98970e+00    -7.85960e+00     5.58310e+00
O      -6.93311e+00     9.19409e+00    -3.95705e+00
H      -6.38050e+00     8.48939e+00    -4.36561e+00
H      -6.33120e+00     9.98856e+00    -3.89276e+00
O       2.23396e+00    -1.02229e+00    -2.45173e+00
H       3.12608e+00    -1.38434e+00    -2.63351e+00
H       2.42388e+00    -3.26366e-01    -1.81976e+00
O      -9.65821e+00     6.28732e+00    -1.14126e+01
H      -1.04606e+01     5.80138e+00    -1.17082e+01
H      -1.00331e+01     6.95753e+00    -1.07373e+01
O       9.53070e+00     6.78460e+00     3.01801e+00
H       8.96951e+00     7.60709e+00     3.29105e+00
H       9.36219e+00     5.86963e+00     3.38517e+00
O       7.98814e+00     7.20603e+00     7.88382e+00
H       7.55070e+00     7.60406e+00     8.67772e+00
H       8.81295e+00     7.76052e+00     7.76753e+00
O       9.76420e+00    -3.87470e+00    -3.57626e+00
H       8.81985e+00    -4.09256e+00    -3.59708e+00
H       1.00844e+01    -4.10459e+00    -2.66240e+00
O      -2.20602e+00    -3.76429e-02     1.03759e+01
H      -1.61374e+00    -1.64841e-01     9.60035e+00
H      -1.60845e+00    -1.19086e-01     1.11199e+01
O       1.08350e+01    -1.31727e+00     1.27981e+01
H       1.00475e+01    -1.09642e+00     1.33812e+01
H       1.05832e+01    -1.83159e+00     1.19907e+01
O       1.26695e+01    -2.19385e+00     5.43977e+00
H       1.31990e+01    -2.41289e+00     4.70655e+00
H       1.17613e+01    -2.28957e+00     5.17384e+00
O      -6.69057e+00    -1.03055e-01     1.00658e+01
H      -5.83963e+00    -5.66447e-01     1.00487e+01
H      -7.40919e+00    -6.85238e-01     1.05194e+01
O      -5.43003e+00    -4.42653e+00     7.43248e+00
H      -5.24317e+00    -4.36209e+00     8.37006e+00
H      -6.30542e+00    -4.02126e+00     7.35731e+00
O      -9.72858e+00    -3.70934e+00    -5.40390e+00
H      -9.22004e+00    -4.51758e+00    -5.13924e+00
H      -1.01646e+01    -3.22724e+00    -4.66398e+00
O      -9.49054e+00    -6.19309e+00    -7.09335e-01
H      -8.94519e+00    -6.85414e+00    -1.14374e+00
H      -8.79976e+00    -5.64104e+00    -2.69588e-01
O      -1.04495e+01     4.40765e+00    -1.78833e+00
H      -1.14540e+01     4.49592e+00    -1.93595e+00
H      -1.01841e+01     3.59617e+00    -2.24892e+00
O       3.35920e+00     5.09252e+00     8.53589e-01
H       2.89923e+00     4.61917e+00     8.55206e-02
H       4.24227e+00     4.65606e+00     6.27888e-01
O       1.21746e+01     6.58052e-01    -7.30909e-01
H       1.25078e+01     1.64668e-01     7.02832e-02
H       1.17417e+01     1.45812e+00    -2.50280e-01
O       1.37761e+00    -2.44360e+00     2.68995e+00
H       1.10214e+00    -1.47498e+00     2.74037e+00
H       2.32643e+00    -2.31801e+00     2.59075e+00
O      -5.51988e+00     1.15445e+01    -4.19404e+00
H      -4.70885e+00     1.13495e+01    -3.64314e+00
H      -5.10031e+00     1.17463e+01    -5.08729e+00
O      -1.97786e+00     5.61278e+00    -2.95623e+00
H      -2.37808e+00     4.85670e+00    -3.41089e+00
H      -2.23568e+00     6.54783e+00    -3.11600e+00
O      -1.07607e+01     9.29827e+00     3.67982e+00
H      -1.06931e+01     9.63240e+00     4.57250e+00
H      -1.17349e+01     8.98857e+00     3.67234e+00
O      -6.76161e+00     5.21996e+00    -2.94650e+00
H      -6.39933e+00     5.95611e+00    -2.49118e+00
H      -7.68754e+00     5.46377e+00    -3.17912e+00
O      -1.17378e+01     1.24727e+01    -1.27813e+00
H      -1.08503e+01     1.21810e+01    -1.57169e+00
H      -1.16447e+01     1.30222e+01    -4.50109e-01
O       1.04133e+01    -1.05851e+01     9.74137e+00
H       1.00158e+01    -9.97067e+00     9.05862e+00
H       1.12276e+01    -1.09850e+01     9.35800e+00
O       2.52294e+00     9.37852e+00     8.76444e+00
H       3.48554e+00     9.61756e+00     8.93101e+00
H       2.03227e+00     1.01795e+01     8.56182e+00
O       5.96140e+00    -5.52133e+00     1.92851e+00
H       4.95086e+00    -5.44374e+00     2.01661e+00
H       6.30663e+00    -4.89781e+00     1.21923e+00
O       1.03488e+01    -2.53912e+00     1.06444e+01
H       1.01790e+01    -1.83483e+00     1.00032e+01
H       1.09922e+01    -3.18237e+00     1.02286e+01
O      -1.24446e+01    -1.67954e-01     7.19985e+00
H      -1.18946e+01    -4.50669e-01     7.96414e+00
H      -1.22598e+01    -8.74294e-01     6.48001e+00
O      -1.25130e+01     2.46415e+00    -4.03783e+00
H      -1.15799e+01     2.30498e+00    -3.84576e+00
H      -1.30659e+01     1.73664e+00    -3.66919e+00
O      -9.77257e+00     7.41213e+00     1.09091e+01
H      -9.57774e+00     6.83890e+00     1.17029e+01
H      -9.45816e+00     6.88080e+00     1.01754e+01
O       9.04575e+00    -8.71067e+00     1.29008e+01
H       8.41359e+00    -9.02415e+00     1.21881e+01
H       9.87201e+00    -9.13600e+00     1.25914e+01
O       1.04218e+01    -7.12872e+00     9.35218e+00
H       1.09102e+01    -7.47328e+00     8.59738e+00
H       1.08996e+01    -6.30698e+00     9.45449e+00
O       8.28120e+00    -1.58079e+00     6.54979e+00
H       8.32390e+00    -5.83057e-01     6.51803e+00
H       8.63430e+00    -1.60508e+00     7.41647e+00
O      -2.90678e+00     6.86306e+00     5.25383e+00
H      -3.49837e+00     7.67120e+00     4.88774e+00
H      -2.12868e+00     7.30058e+00     5.62391e+00
O      -1.02764e+01    -1.14685e+01     9.20486e+00
H      -9.71216e+00    -1.09528e+01     8.54598e+00
H      -1.03791e+01    -1.08521e+01     9.97931e+00
O      -7.05852e+00     9.88743e-01     7.55193e+00
H      -7.61610e+00     1.69826e+00     7.99476e+00
H      -6.69837e+00     5.56917e-01     8.33891e+00
O      -1.62879e+00     1.39144e+01    -9.25162e+00
H      -1.76901e+00     1.48797e+01    -9.14248e+00
H      -2.20227e+00     1.35339e+01    -1.00112e+01
O       2.44067e-01    -7.82358e+00     5.03033e+00
H      -5.74005e-01    -7.36130e+00     5.22619e+00
H       9.59255e-01    -7.13960e+00     4.99004e+00
O       9.42508e+00    -6.14548e+00    -1.18779e+01
H       9.06392e+00    -7.06100e+00    -1.19027e+01
H       1.03351e+01    -6.51378e+00    -1.20445e+01
O      -3.55990e+00     2.29720e+00     9.54101e+00
H      -4.27855e+00     2.17606e+00     1.02165e+01
H      -3.05591e+00     1.48712e+00     9.84111e+00
O       8.01604e+00    -1.35239e+01     6.84569e+00
H       7.93179e+00    -1.33675e+01     7.81176e+00
H       8.86045e+00    -1.39623e+01     6.79404e+00
O       2.86366e+00     6.82941e+00     8.04444e+00
H       3.55345e+00     7.02773e+00     7.36657e+00
H       2.51844e+00     7.74415e+00     8.23149e+00
O       5.48398e+00    -1.04597e+01    -4.50319e+00
H       5.39894e+00    -1.07938e+01    -5.49598e+00
H       4.60816e+00    -9.96086e+00    -4.35831e+00
O      -9.26874e-01    -3.92895e-01     7.76505e+00
H      -1.49594e-01    -1.00439e+00     7.70988e+00
H      -4.34940e-01     4.54548e-01     7.69887e+00
O      -4.17320e+00     9.68411e+00    -7.68585e+00
H      -4.08465e+00     1.06538e+01    -7.39230e+00
H      -4.63285e+00     9.65935e+00    -8.53771e+00
O       6.56409e-01     1.04314e+01     1.62454e+00
H       2.33399e-01     9.71803e+00     2.17750e+00
H       1.52516e+00     9.97229e+00     1.37039e+00
O      -2.60062e+00     4.57901e+00    -7.89308e+00
H      -1.86191e+00     4.97413e+00    -8.38912e+00
H      -3.06981e+00     4.14469e+00    -8.60623e+00
O       3.33798e+00    -6.07634e+00     2.63368e+00
H       2.73989e+00    -6.39858e+00     1.94092e+00
H       3.76410e+00    -6.93987e+00     2.90090e+00
O       3.53981e+00     3.42296e+00    -2.94234e+00
H       3.47180e+00     4.30808e+00    -3.28808e+00
H       3.42214e+00     2.79586e+00    -3.70904e+00
O       2.15460e+00     5.99691e+00    -8.21793e+00
H       2.20266e+00     6.95175e+00    -8.06852e+00
H       2.59788e+00     5.90575e+00    -9.06582e+00
O      -5.16843e+00    -4.03162e+00     1.01831e+01
H      -4.28521e+00    -4.50682e+00     1.02957e+01
H      -4.88798e+00    -3.06428e+00     1.02085e+01
O      -8.65055e+00    -2.95169e-01    -8.34927e-02
H      -8.64345e+00     6.60892e-01     1.44385e-01
H      -9.22140e+00    -2.01744e-01    -8.82559e-01
O      -6.35536e+00    -6.55060e+00    -8.91949e+00
H      -6.77845e+00    -6.67315e+00    -9.80857e+00
H      -6.79921e+00    -7.19682e+00    -8.29052e+00
O      -1.56551e+00    -1.13626e+01     6.70258e+00
H      -8.26937e-01    -1.06769e+01     6.82406e+00
H      -2.42056e+00    -1.08401e+01     6.76803e+00
O       1.18780e+01    -9.20881e+00     4.46471e-01
H       1.22986e+01    -9.89100e+00     1.02194e+00
H       1.09279e+01    -9.20831e+00     6.55206e-01
O      -5.60295e+00    -3.19318e-01    -9.60456e+00
H      -5.74223e+00     5.41626e-01    -1.00832e+01
H      -6.20999e+00    -2.61307e-01    -8.82893e+00
O       6.98839e+00     1.36801e-01     1.86380e+00
H       7.61700e+00     8.57322e-01     2.14707e+00
H       7.60276e+00    -5.06989e-01     1.38217e+00
O       1.01128e+00    -5.33966e+00    -7.19634e+00
H       2.39589e-01    -5.51349e+00    -6.65331e+00
H       1.21332e+00    -6.26793e+00    -7.50753e+00
O      -4.38031e+00    -6.43832e+00    -2.56680e+00
H      -4.41463e+00    -7.32600e+00    -3.01248e+00
H      -4.75971e+00    -6.64948e+00    -1.74759e+00
O       1.04121e+01     7.02358e+00    -4.12657e+00
H       9.41788e+00     6.95825e+00    -4.04943e+00
H       1.07164e+01     6.55507e+00    -3.27911e+00
O       7.55095e+00     4.11074e+00    -2.06774e+00
H       6.70300e+00     3.96992e+00    -1.55834e+00
H       7.68384e+00     3.25749e+00    -2.58608e+00
O      -6.80569e+00     8.45681e+00    -2.09899e-01
H      -6.23078e+00     8.02667e+00    -9.40692e-01
H      -6.18856e+00     8.45610e+00     5.43472e-01
O       6.71968e+00    -2.10300e+00    -5.23120e+00
H       6.53323e+00    -2.40012e+00    -6.16872e+00
H       5.83811e+00    -1.93577e+00    -4.89956e+00
O       6.64210e+00    -1.72445e+00     3.91357e+00
H       5.69533e+00    -1.84347e+00     3.66469e+00
H       6.89971e+00    -1.01877e+00     3.29063e+00
O      -1.04456e+01     5.51292e-02    -2.12820e+00
H      -1.13127e+01     4.37470e-01    -1.71620e+00
H      -1.06675e+01    -7.72933e-01    -2.55672e+00
O       7.85031e+00     5.12012e-01    -5.52400e+00
H       7.48903e+00    -3.92615e-01    -5.43305e+00
H       7.13018e+00     1.01428e+00    -5.92355e+00
O      -9.03870e+00    -1.01707e+01    -1.05216e+00
H      -8.70840e+00    -1.08856e+01    -1.64865e+00
H      -9.98976e+00    -1.01354e+01    -1.27332e+00
O      -2.10342e+00    -5.89343e-01     1.72623e+00
H      -2.20443e+00    -6.50081e-01     7.55320e-01
H      -2.81462e+00     8.95431e-03     2.10121e+00
O       4.68787e+00    -1.07291e+01     6.49643e+00
H       5.05003e+00    -9.84642e+00     6.19263e+00
H       5.42097e+00    -1.10823e+01     7.18522e+00
O       7.71340e+00     8.72897e+00    -3.19218e-01
H       6.74934e+00     8.75778e+00    -5.66643e-01
H       8.22049e+00     9.18505e+00    -1.01857e+00
O      -6.14863e+00    -1.07143e+01    -1.27050e+01
H      -6.18979e+00    -1.14325e+01    -1.33400e+01
H      -5.45037e+00    -1.10055e+01    -1.20888e+01
O       3.08727e-03     5.08071e-03    -8.61338e+00
H       3.54029e-01     7.72990e-01    -9.18045e+00
H      -5.31310e-01    -6.25444e-01    -9.23081e+00
O      -2.46331e+00    -8.32715e+00    -5.75439e+00
H      -2.27762e+00    -7.40946e+00    -5.49886e+00
H      -1.68817e+00    -8.87974e+00    -5.46206e+00
O      -4.21481e+00     1.22504e+01    -6.41580e+00
H      -4.76805e+00     1.28782e+01    -6.98677e+00
H      -3.30343e+00     1.25584e+01    -6.46226e+00
O       9.14326e+00     1.87472e+00     2.53325e+00
H       9.62046e+00     1.79969e+00     1.71101e+00
H       9.10891e+00     2.80649e+00     2.77281e+00
O      -1.00869e+01    -5.01355e+00     1.34631e+01
H      -1.09127e+01    -4.95462e+00     1.41237e+01
H      -9.78501e+00    -4.04520e+00     1.33413e+01
O      -1.23458e+01    -5.47704e+00     2.85783e+00
H      -1.32684e+01    -5.07890e+00     2.84644e+00
H      -1.21705e+01    -6.13765e+00     2.10950e+00
O      -5.79672e+00     2.14593e+00     1.10504e+01
H      -6.29694e+00     1.41537e+00     1.06906e+01
H      -5.79143e+00     1.96223e+00     1.20347e+01
O       6.12291e+00     4.18844e+00     1.24577e+01
H       6.95498e+00     4.04619e+00     1.19034e+01
H       5.50021e+00     4.54545e+00     1.17712e+01
O       7.14487e+00    -4.18236e+00    -1.48053e-01
H       7.99556e+00    -4.66085e+00    -3.99785e-01
H       7.43001e+00    -3.33323e+00     2.61119e-01
O       1.29565e+01     3.06704e+00    -8.65701e+00
H       1.32446e+01     3.98218e+00    -8.38700e+00
H       1.29397e+01     2.51558e+00    -7.83006e+00
O       9.37954e+00     6.80845e+00     4.52041e-01
H       8.67065e+00     7.40380e+00     1.00426e-02
H       9.08901e+00     6.69233e+00     1.40046e+00
O       6.14143e+00     1.33904e+01     8.63078e+00
H       6.81697e+00     1.27633e+01     8.92603e+00
H       5.37361e+00     1.32781e+01     9.23801e+00
O      -1.00360e+01    -7.62005e+00     9.35800e+00
H      -1.01989e+01    -8.47902e+00     9.82488e+00
H      -9.06067e+00    -7.53384e+00     9.24398e+00
O       1.05147e+01    -2.27931e+00     4.69891e-01
H       1.13054e+01    -1.78953e+00     6.96984e-01
H       1.03110e+01    -2.76354e+00     1.24773e+00
O       4.39416e-01     2.18491e+00     3.38611e+00
H       3.13977e-01     3.09222e+00     3.05783e+00
H      -3.77239e-01     2.03220e+00     3.91891e+00
O       1.02752e+01     8.56576e+00     7.84593e+00
H       1.04040e+01     9.09946e+00     8.65774e+00
H       1.11110e+01     8.07153e+00     7.84801e+00
O      -7.23237e+00    -1.11433e+01    -3.23614e+00
H      -6.83701e+00    -1.19838e+01    -3.53306e+00
H      -6.90698e+00    -1.03709e+01    -3.78317e+00
O      -9.72422e+00     9.64408e+00     8.46888e+00
H      -9.71462e+00     1.02395e+01     9.27024e+00
H      -1.03388e+01     8.91580e+00     8.60198e+00
O       2.26658e+00    -1.01729e+01     2.34517e+00
H       1.80410e+00    -1.08904e+01     2.83208e+00
H       1.63002e+00    -9.42099e+00     2.17429e+00
O      -4.96618e+00    -1.02449e+01    -1.51932e+00
H      -5.63063e+00    -1.06810e+01    -2.07773e+00
H      -4.92491e+00    -1.06782e+01    -6.29081e-01
O      -7.34686e-01     1.13840e+01    -4.52426e-01
H      -7.89857e-01     1.23500e+01    -5.60867e-01
H       1.06676e-02     1.11073e+01     2.00515e-01
O       9.89138e+00    -6.75390e-01     8.55617e+00
H       9.82171e+00     4.93819e-02     9.20871e+00
H       1.05998e+01    -4.45913e-01     7.90068e+00
O       1.65597e+00     4.08371e+00    -6.31349e+00
H       1.76635e+00     4.62875e+00    -7.14980e+00
H       6.46335e-01     4.01649e+00    -6.39597e+00
O      -1.19565e+01     1.41340e+00    -6.48104e+00
H      -1.27204e+01     8.38157e-01    -6.76402e+00
H      -1.21980e+01     1.70802e+00    -5.56056e+00
O      -8.99673e+00     1.12831e+01     1.04609e+01
H      -9.35300e+00     1.20480e+01     9.89366e+00
H      -9.37204e+00     1.14132e+01     1.13211e+01
O      -5.34115e+00     1.25958e+01     5.34788e-01
H      -6.07599e+00     1.19679e+01     3.81610e-01
H      -4.68030e+00     1.21286e+01     1.08245e+00
O       1.18981e+01     8.29596e+00    -1.07867e+01
H       1.13941e+01     7.47073e+00    -1.06943e+01
H       1.13916e+01     9.07228e+00    -1.04442e+01
O      -3.16436e-01     6.64155e-01    -5.96890e+00
H       4.50032e-01     4.84029e-01    -5.34359e+00
H      -2.64792e-02     3.44363e-01    -6.85360e+00
O       1.21617e+01    -7.32546e+00     1.29080e+01
H       1.20408e+01    -8.20883e+00     1.24816e+01
H       1.26242e+01    -6.80130e+00     1.21812e+01
O       5.12918e+00     4.56452e+00     8.46504e+00
H       5.18659e+00     3.68008e+00     8.87240e+00
H       4.89738e+00     4.20585e+00     7.50041e+00
O      -5.93552e+00    -9.45126e-01    -1.38818e-01
H      -6.89246e+00    -6.56139e-01    -3.37736e-01
H      -5.95953e+00    -1.91016e+00    -4.23397e-01
O      -2.20593e+00    -4.87019e+00    -2.73977e+00
H      -2.58314e+00    -4.16252e+00    -3.29767e+00
H      -2.86780e+00    -5.64159e+00    -2.72710e+00
O       1.07688e+01     6.61394e-01     4.29703e+00
H       1.02110e+01     1.02626e+00     3.61298e+00
H       1.17270e+01     6.14715e-01     3.97198e+00
O       1.30796e+01     3.11654e+00     2.32241e+00
H       1.27863e+01     3.56750e+00     3.12318e+00
H       1.38480e+01     3.51373e+00     1.85775e+00
O      -4.42047e+00     1.03765e+01    -1.24409e+01
H      -4.13477e+00     9.48925e+00    -1.28996e+01
H      -5.10840e+00     1.06379e+01    -1.30987e+01
O       6.49368e+00    -8.28200e+00     1.96842e+00
H       6.33971e+00    -7.33117e+00     2.04703e+00
H       5.69299e+00    -8.66626e+00     2.45710e+00
O       5.63422e+00     1.07898e+01    -6.57779e+00
H       6.26544e+00     1.05127e+01    -7.29353e+00
H       6.17712e+00     1.07386e+01    -5.74954e+00
O      -3.76192e+00    -3.94445e+00    -8.64777e+00
H      -3.68724e+00    -2.94475e+00    -8.72760e+00
H      -4.63155e+00    -4.06702e+00    -8.29100e+00
O       6.05221e+00    -4.68207e-01    -1.13331e+01
H       5.71413e+00     4.09866e-01    -1.10894e+01
H       5.50789e+00    -1.03142e+00    -1.07882e+01
O       3.04991e+00    -9.73353e-01     5.39846e+00
H       2.69921e+00    -8.90198e-02     5.47192e+00
H       2.49559e+00    -1.49381e+00     5.98923e+00
O       2.26530e+00    -5.26495e+00    -2.94624e+00
H       2.71927e+00    -5.04164e+00    -3.82809e+00
H       1.58904e+00    -4.60037e+00    -2.78337e+00
O       6.85659e+00     6.82586e+00     5.47853e+00
H       7.20877e+00     7.58804e+00     4.94714e+00
H       7.28485e+00     6.98233e+00     6.40816e+00
O      -9.57185e+00    -9.94733e+00     5.08221e+00
H      -9.42285e+00    -9.22316e+00     4.45576e+00
H      -1.05517e+01    -1.00668e+01     5.33578e+00
O       6.01719e+00     8.24391e+00    -3.65824e+00
H       5.31520e+00     7.94049e+00    -4.32152e+00
H       6.58810e+00     8.93748e+00    -4.07815e+00
O      -9.94172e+00    -5.24489e-01    -9.45908e+00
H      -9.55852e+00    -6.55529e-01    -8.57879e+00
H      -1.08265e+01    -9.52868e-01    -9.24603e+00
O      -2.53127e+00    -2.77467e+00     1.21534e+01
H      -1.73748e+00    -2.67632e+00     1.27192e+01
H      -2.28920e+00    -3.45586e+00     1.15159e+01
O      -8.94991e+00    -2.55991e+00    -1.14297e+01
H      -7.98548e+00    -2.48406e+00    -1.11690e+01
H      -9.42911e+00    -1.89347e+00    -1.08993e+01
O      -1.88690e-01    -9.73593e-02     1.21135e+01
H      -3.19006e-01    -6.97687e-01     1.28989e+01
H       7.14101e-01    -3.39509e-01     1.18545e+01
O       8.16178e+00     8.67463e+00     4.14340e+00
H       7.89931e+00     9.28005e+00     3.42026e+00
H       8.73598e+00     9.24252e+00     4.73296e+00
O       3.24904e+00    -4.79803e+00    -5.44734e+00
H       2.47177e+00    -5.07999e+00    -6.00837e+00
H       4.01080e+00    -5.14312e+00    -5.93763e+00
O      -6.01077e+00    -1.20150e+01     4.06158e+00
H      -6.11715e+00    -1.12203e+01     3.50719e+00
H      -5.12996e+00    -1.24665e+01     3.86195e+00
O       4.79908e+00    -4.62437e-01     1.09171e+01
H       5.34624e+00    -4.55557e-01     1.17473e+01
H       5.09179e+00    -1.23955e+00     1.04100e+01
O       7.83842e+00    -9.15419e+00    -4.71988e+00
H       6.93596e+00    -9.60168e+00    -4.63274e+00
H       7.62061e+00    -8.20600e+00    -5.01082e+00
O      -6.35465e+00     4.90333e+00     1.10234e+01
H      -6.83359e+00     5.06918e+00     1.18789e+01
H      -6.20055e+00     3.92873e+00     1.10126e+01
O      -2.67205e+00    -5.11105e+00     1.06481e+01
H      -2.72309e+00    -5.90497e+00     1.12690e+01
H      -2.41602e+00    -5.48557e+00     9.78321e+00
O       5.33601e+00    -5.60682e+00    -7.06527e+00
H       5.00591e+00    -6.14502e+00    -7.80098e+00
H       5.69154e+00    -4.75735e+00    -7.37088e+00
O      -7.94827e+00     2.36747e+00     1.33796e-01
H      -7.22306e+00     2.47621e+00     8.59762e-01
H      -8.65988e+00     2.94065e+00     3.49494e-01
O      -1.86889e+00    -6.78097e+00     8.67312e+00
H      -2.45733e+00    -7.60319e+00     8.75497e+00
H      -1.73763e+00    -6.64270e+00     7.73795e+00
O       7.45474e+00     4.14792e+00     5.54957e+00
H       7.45886e+00     5.14859e+00     5.38502e+00
H       7.68225e+00     4.10258e+00     6.49302e+00
O      -3.63701e+00    -7.70524e-01     7.37802e+00
H      -2.63891e+00    -7.03600e-01     7.41706e+00
H      -3.82616e+00     1.48920e-01     7.10295e+00
O      -8.06138e+00     7.78458e+00    -7.28672e+00
H      -8.86945e+00     8.35883e+00    -7.48533e+00
H      -7.53503e+00     7.59431e+00    -8.14832e+00
O       8.75542e+00    -2.54143e+00    -8.83048e+00
H       8.69299e+00    -1.81913e+00    -9.51139e+00
H       9.35167e+00    -3.23317e+00    -9.19615e+00
O      -1.46500e+00    -8.14253e+00    -8.40164e+00
H      -2.31056e+00    -7.60983e+00    -8.61766e+00
H      -1.60790e+00    -8.34247e+00    -7.50798e+00
O       8.07486e+00    -1.70596e+00     1.65747e-01
H       9.06812e+00    -1.74209e+00    -2.09053e-03
H       7.56790e+00    -1.30629e+00    -5.22587e-01
O       7.04576e+00     1.02495e+01    -8.79737e+00
H       7.37737e+00     1.11945e+01    -8.77431e+00
H       7.92531e+00     9.77679e+00    -8.63501e+00
O       8.78274e-01     8.56216e+00     1.08141e+01
H       1.50716e+00     8.67471e+00     1.01238e+01
H       3.77273e-02     8.74298e+00     1.02813e+01
O      -1.26278e+00     2.36429e+00    -1.19296e+01
H      -7.82825e-01     3.07340e+00    -1.24558e+01
H      -1.02110e+00     1.52365e+00    -1.23227e+01
O       3.26050e+00     9.52710e+00     1.96512e+00
H       4.00064e+00     1.01269e+01     1.85541e+00
H       2.98840e+00     9.56170e+00     2.89838e+00
O      -2.90516e+00     8.13911e+00    -3.07921e+00
H      -2.88683e+00     8.33846e+00    -4.06061e+00
H      -2.01812e+00     8.48408e+00    -2.75748e+00
O      -1.28283e+01    -1.01228e+01     3.02255e+00
H      -1.28266e+01    -1.00476e+01     4.03572e+00
H      -1.34198e+01    -9.42283e+00     2.65244e+00
O      -1.07280e+01     1.35452e+01     1.57985e+00
H      -1.14250e+01     1.34797e+01     2.32025e+00
H      -1.04473e+01     1.25998e+01     1.35451e+00
O       7.87436e+00     6.10178e+00    -3.81248e+00
H       7.31115e+00     6.89541e+00    -3.59952e+00
H       7.64230e+00     5.46206e+00    -3.10697e+00
O      -5.67828e+00    -5.14018e+00    -4.71780e+00
H      -5.05343e+00    -4.81621e+00    -5.38387e+00
H      -5.18175e+00    -5.47521e+00    -3.97018e+00
O       1.08297e+01     1.01255e+01     1.01178e+01
H       1.12116e+01     1.08957e+01     9.59660e+00
H       1.16583e+01     9.66942e+00     1.04829e+01
O       6.56136e+00     2.56163e+00    -8.94028e+00
H       7.46292e+00     2.13721e+00    -9.14354e+00
H       5.82789e+00     2.25214e+00    -9.60681e+00
O       1.47228e+00    -6.76782e+00     6.54422e-01
H       8.10699e-01    -7.22870e+00     1.19980e+00
H       1.13976e+00    -5.89184e+00     4.11164e-01
O       6.46047e+00    -2.99900e+00    -7.74504e+00
H       5.70860e+00    -2.76769e+00    -8.34036e+00
H       7.32140e+00    -2.88956e+00    -8.23021e+00
O      -9.64712e+00    -7.75747e+00     3.67725e+00
H      -8.84908e+00    -7.21350e+00     3.90823e+00
H      -9.66525e+00    -7.83636e+00     2.66007e+00
O      -6.84698e+00     2.49286e+00    -2.33963e+00
H      -7.47095e+00     2.36992e+00    -1.61415e+00
H      -6.91823e+00     3.46351e+00    -2.50512e+00
O      -4.91612e+00     9.84100e-01    -6.21636e+00
H      -5.53385e+00     4.03301e-01    -6.66556e+00
H      -4.04363e+00     5.38079e-01    -6.31972e+00
O       1.07651e+01     3.11067e+00    -1.02096e+01
H       1.14853e+01     3.03758e+00    -9.53027e+00
H       1.05899e+01     4.07705e+00    -1.03115e+01
O      -4.32322e+00     8.64764e+00     4.18975e+00
H      -5.19073e+00     8.76411e+00     4.64423e+00
H      -3.89563e+00     9.57425e+00     4.17087e+00
O      -9.29772e+00    -4.62761e+00     5.34362e+00
H      -9.92990e+00    -5.23021e+00     5.74063e+00
H      -9.77135e+00    -4.19562e+00     4.57805e+00
O      -1.20639e+01    -1.09812e+01    -4.32746e+00
H      -1.12127e+01    -1.13730e+01    -4.70184e+00
H      -1.18331e+01    -1.04998e+01    -3.52370e+00
O       8.63290e+00    -1.20322e+01    -8.77010e+00
H       8.42911e+00    -1.16539e+01    -7.94053e+00
H       8.28743e+00    -1.15113e+01    -9.49768e+00
O       3.97347e+00    -2.33325e+00     3.40739e+00
H       4.06337e+00    -3.21136e+00     3.82527e+00
H       3.55033e+00    -1.83998e+00     4.05447e+00
O      -6.00806e-01    -8.33943e+00    -1.25926e+01
H      -1.29579e+00    -7.71178e+00    -1.24090e+01
H      -2.13421e-01    -7.93528e+00    -1.34593e+01
O       5.17786e-01     1.03655e+01    -9.42659e+00
H       8.46839e-01     1.11935e+01    -9.07470e+00
H       1.12783e+00     9.68916e+00    -9.00633e+00
O      -8.04321e-01     3.96680e+00     7.32460e+00
H      -2.43844e-01     3.14790e+00     7.48513e+00
H      -1.62736e-01     4.60054e+00     6.93920e+00
O      -2.60694e+00    -7.34322e-01    -6.07039e+00
H      -1.77807e+00    -3.56456e-01    -5.74690e+00
H      -2.90167e+00    -1.37601e+00    -5.42034e+00
O       2.22908e+00     1.71809e+00     9.71169e+00
H       2.12650e+00     8.04815e-01     1.01362e+01
H       1.95956e+00     2.36827e+00     1.03865e+01
O       1.40483e+01     7.82430e+00    -9.42317e+00
H       1.32025e+01     8.11193e+00    -9.88151e+00
H       1.46076e+01     8.64347e+00    -9.33797e+00
O       8.17107e+00    -3.92419e+00     1.15525e+01
H       8.88000e+00    -3.41776e+00     1.11802e+01
H       8.63683e+00    -4.58260e+00     1.21019e+01
O       6.32969e+00     4.94464e+00    -5.82199e+00
H       6.90843e+00     5.48922e+00    -5.18277e+00
H       6.65288e+00     5.11769e+00    -6.83715e+00
O       5.46340e-01    -3.45987e+00    -1.89190e+00
H       1.10490e+00    -2.64596e+00    -1.83942e+00
H      -2.64573e-01    -3.17808e+00    -2.38901e+00
O       3.09644e+00     1.42215e+01    -2.38229e-01
H       3.49787e+00     1.33840e+01    -3.96517e-01
H       2.89877e+00     1.42805e+01     7.24395e-01
O      -8.78896e+00     3.19247e+00     7.95419e+00
H      -9.50553e+00     2.87980e+00     8.54034e+00
H      -9.14590e+00     3.15843e+00     7.05722e+00
O       4.96106e+00    -8.50862e+00     1.06947e+01
H       4.39578e+00    -9.30276e+00     1.07140e+01
H       5.91840e+00    -8.81694e+00     1.07387e+01
O       1.27831e+01    -1.14582e+00     1.17169e+00
H       1.29397e+01    -5.95585e-01     1.96928e+00
H       1.36237e+01    -1.62474e+00     1.03124e+00
O      -2.96796e+00    -1.35424e+01    -3.38580e+00
H      -2.80424e+00    -1.38362e+01    -4.30892e+00
H      -3.13261e+00    -1.43666e+01    -2.94285e+00
O       2.03376e+00    -5.55219e-02    -4.97007e+00
H       2.53322e+00     7.62216e-01    -5.05065e+00
H       2.02925e+00    -2.97640e-01    -4.05927e+00
O      -2.32431e+00     1.13873e+01     8.56915e+00
H      -2.09948e+00     1.19200e+01     7.74915e+00
H      -1.78575e+00     1.18537e+01     9.27060e+00
O       1.19885e+01    -1.27938e+01     2.90697e+00
H       1.15128e+01    -1.19512e+01     3.11667e+00
H       1.14991e+01    -1.31159e+01     2.08906e+00
O      -9.84693e+00     4.20978e+00     7.91630e-01
H      -9.28467e+00     4.96345e+00     1.05126e+00
H      -1.01154e+01     4.36541e+00    -1.15318e-01
O      -8.59855e+00    -1.24645e+01     4.47289e+00
H      -7.65039e+00    -1.23060e+01     4.22415e+00
H      -8.93844e+00    -1.16112e+01     4.76884e+00
O      -1.00768e+00     3.34208e+00    -6.15060e+00
H      -7.41647e-01     2.44650e+00    -6.28502e+00
H      -1.74290e+00     3.59398e+00    -6.84737e+00
O       5.27985e+00    -1.01786e+01    -9.11899e+00
H       4.65022e+00    -1.03310e+01    -9.79478e+00
H       6.22223e+00    -1.01846e+01    -9.46584e+00
O      -7.28948e-01     8.73084e+00     3.14868e+00
H      -1.41290e+00     8.41122e+00     2.48378e+00
H      -2.67038e-01     7.95819e+00     3.42638e+00
O       9.69064e+00     1.09942e+01     1.22647e+01
H       1.03105e+01     1.08797e+01     1.29898e+01
H       1.01663e+01     1.07858e+01     1.13653e+01
O       8.55204e+00    -9.21504e+00     8.47046e+00
H       8.42183e+00    -8.22886e+00     8.26102e+00
H       8.30011e+00    -9.76099e+00     7.64511e+00
O       1.29909e+00    -1.23076e+01     3.41120e+00
H       1.26565e+00    -1.30395e+01     2.72074e+00
H       2.12140e+00    -1.25508e+01     3.92893e+00
O       4.03628e+00    -5.96176e+00    -8.82189e-01
H       4.09474e+00    -5.26751e+00    -1.83392e-01
H       3.18029e+00    -5.70743e+00    -1.39265e+00
O      -1.03653e+01    -1.34494e+01    -1.18754e+01
H      -1.09369e+01    -1.28093e+01    -1.14150e+01
H      -1.09240e+01    -1.40630e+01    -1.23639e+01
O      -2.47014e+00     4.84668e+00     9.30453e+00
H      -1.70757e+00     4.58298e+00     8.76143e+00
H      -3.01420e+00     4.03649e+00     9.46091e+00
O      -4.38931e+00    -9.93035e+00    -7.72163e+00
H      -4.04339e+00    -9.41189e+00    -8.53403e+00
H      -3.70587e+00    -9.60376e+00    -7.09809e+00
O      -5.48442e+00     2.66932e-01    -3.74170e+00
H      -5.53416e+00     6.18016e-01    -4.63114e+00
H      -6.02430e+00     9.09726e-01    -3.15556e+00
O      -4.01039e+00     5.97423e+00     7.32615e+00
H      -3.56766e+00     6.21166e+00     6.51415e+00
H      -3.43691e+00     5.56001e+00     8.01474e+00
O      -9.39769e+00     9.52787e-01    -7.18674e+00
H      -9.16558e+00     1.83913e+00    -6.80637e+00
H      -1.02343e+01     8.42935e-01    -6.73959e+00
O       6.03751e+00     6.23273e+00    -1.02552e+01
H       6.37351e+00     5.70748e+00    -1.09832e+01
H       6.05322e+00     7.19800e+00    -1.05436e+01
O       7.27631e-01     1.89653e+00     7.47823e+00
H       1.26474e+00     1.85919e+00     8.31230e+00
H       1.36927e+00     1.88666e+00     6.70057e+00
O      -9.61695e+00     1.12143e+01     2.03511e+00
H      -1.01592e+01     1.05542e+01     2.44209e+00
H      -9.41689e+00     1.18914e+01     2.73744e+00
O       2.76156e+00     1.40857e+01    -1.04350e+01
H       2.09880e+00     1.35507e+01    -9.88464e+00
H       2.30380e+00     1.49184e+01    -1.05610e+01
O      -3.88729e-02     1.00774e+01     5.36596e+00
H      -6.66770e-01     9.99261e+00     4.69110e+00
H       8.31270e-01     9.93371e+00     4.93244e+00
O       5.02896e+00     7.86925e-01     2.75928e-03
H       4.14167e+00     5.31943e-01     2.67855e-01
H       5.56667e+00     7.21720e-01     8.40994e-01
O       8.20297e+00    -1.08663e+01     6.41353e+00
H       8.26138e+00    -1.17768e+01     6.19511e+00
H       8.26121e+00    -1.04818e+01     5.55605e+00
O       7.80541e+00     4.52267e+00     8.44604e+00
H       6.83343e+00     4.61902e+00     8.34033e+00
H       8.04945e+00     5.48038e+00     8.44567e+00
O       6.13077e+00    -1.21337e+01    -2.69813e+00
H       5.73022e+00    -1.15627e+01    -3.36899e+00
H       6.88027e+00    -1.16342e+01    -2.27006e+00
O       2.36137e+00    -1.07583e+01     7.93575e+00
H       3.21121e+00    -1.07836e+01     7.37954e+00
H       1.88683e+00    -9.94050e+00     7.57513e+00
O       2.19304e-01    -8.49252e+00     2.36513e+00
H       9.13848e-02    -8.07484e+00     3.26121e+00
H      -5.32810e-01    -9.10237e+00     2.17852e+00
O       6.67004e+00    -2.26715e-01    -1.83628e+00
H       6.05111e+00     1.96982e-01    -1.21282e+00
H       7.26458e+00     4.10621e-01    -2.23622e+00
O      -9.46521e+00    -2.47153e+00     1.49607e+00
H      -9.10593e+00    -1.59901e+00     1.32438e+00
H      -8.75053e+00    -3.07386e+00     1.16351e+00
O      -4.79739e+00     1.09675e+01     8.02596e+00
H      -3.78320e+00     1.09669e+01     8.33082e+00
H      -4.95526e+00     9.97777e+00     8.01560e+00
O       1.08181e+01    -1.65289e+00    -4.39998e+00
H       1.08712e+01    -1.62360e+00    -5.35398e+00
H       1.03843e+01    -2.46750e+00    -4.12887e+00
O      -5.70396e+00     2.57762e+00     1.69650e+00
H      -5.21014e+00     2.58253e+00     8.42495e-01
H      -5.62490e+00     3.52095e+00     2.04403e+00
O       8.92413e+00     1.46308e+00    -9.20812e+00
H       9.35196e+00     2.16545e+00    -9.77314e+00
H       9.38607e+00     1.46542e+00    -8.31671e+00
O      -3.20746e+00     5.20052e+00    -5.85251e-01
H      -2.63678e+00     5.23418e+00    -1.39649e+00
H      -3.74768e+00     4.34628e+00    -6.59988e-01
O      -8.40483e+00    -8.00643e+00    -2.34673e+00
H      -7.69775e+00    -8.25450e+00    -2.97367e+00
H      -8.57779e+00    -8.84653e+00    -1.86779e+00
O      -5.03285e+00     8.15447e+00     8.53712e+00
H      -4.66778e+00     7.34098e+00     8.03403e+00
H      -6.02557e+00     8.09097e+00     8.51236e+00
O      -1.38891e+00     5.00664e+00     1.37377e+00
H      -2.06493e+00     4.92691e+00     5.92061e-01
H      -1.90022e+00     4.81317e+00     2.23383e+00
O       1.08321e+01     2.53939e+00     7.61307e-01
H       1.15990e+01     2.75417e+00     1.38051e+00
H       1.05442e+01     3.39164e+00     3.08961e-01
O       1.66412e+00     1.32655e+01    -3.93801e+00
H       9.03002e-01     1.38987e+01    -4.10680e+00
H       2.36195e+00     1.39220e+01    -3.67306e+00
O      -5.93204e+00    -3.69779e+00    -1.21882e+00
H      -4.93977e+00    -3.74644e+00    -1.14496e+00
H      -6.04712e+00    -3.37294e+00    -2.10538e+00
O      -2.95521e-01     1.20942e+01     1.01864e+01
H      -4.22122e-02     1.15376e+01     1.09301e+01
H       2.22265e-01     1.17613e+01     9.38014e+00
O       4.94647e+00     1.32272e+01    -6.88699e+00
H       5.11456e+00     1.36912e+01    -7.77267e+00
H       5.11494e+00     1.22621e+01    -6.93068e+00
O       4.44807e+00    -7.79265e+00    -8.75247e+00
H       4.31474e+00    -7.50649e+00    -9.64869e+00
H       4.97072e+00    -8.63435e+00    -8.78323e+00
O      -8.54329e+00    -1.07290e+01    -7.42197e+00
H      -8.12150e+00    -1.15691e+01    -7.79816e+00
H      -8.91014e+00    -1.09287e+01    -6.52815e+00
O      -9.90419e+00    -9.87288e+00    -9.78463e+00
H      -1.04573e+01    -9.08823e+00    -9.56456e+00
H      -9.55043e+00    -1.01245e+01    -8.92501e+00
O       9.18379e+00     3.41745e+00    -5.60819e+00
H       8.38057e+00     3.85548e+00    -5.86546e+00
H       9.12541e+00     3.26385e+00    -4.63078e+00
O       5.19008e+00    -1.52345e+00     6.56531e+00
H       4.55609e+00    -1.13249e+00     5.87545e+00
H       6.08909e+00    -1.61776e+00     6.21920e+00
O      -7.54568e+00     3.68317e+00    -9.35358e+00
H      -8.32135e+00     3.04858e+00    -9.43011e+00
H      -7.23732e+00     3.73814e+00    -8.43472e+00
O       4.14251e+00    -8.66764e+00     3.24478e+00
H       3.34104e+00    -9.20913e+00     3.16012e+00
H       4.43373e+00    -8.62018e+00     4.19334e+00
O       1.35392e+01     8.28021e+00    -3.74173e+00
H       1.30143e+01     8.03831e+00    -4.51128e+00
H       1.41904e+01     7.55574e+00    -3.46851e+00
O      -4.19908e+00    -1.58162e+00     9.99491e+00
H      -3.39424e+00    -1.50667e+00     1.04524e+01
H      -3.90189e+00    -1.23495e+00     9.12051e+00
O      -4.64275e+00     2.90558e+00    -9.38586e-01
H      -5.47508e+00     2.75897e+00    -1.43932e+00
H      -4.04533e+00     2.20903e+00    -1.24993e+00
O      -1.63531e+00    -1.02964e+01    -1.37748e+01
H      -1.10335e+00    -9.63602e+00    -1.32709e+01
H      -1.03129e+00    -1.09700e+01    -1.41748e+01
O       5.13971e+00     9.02673e+00    -9.11548e-01
H       4.41240e+00     8.50797e+00    -5.24220e-01
H       5.22161e+00     8.77390e+00    -1.87058e+00
O       1.34939e+01    -2.37873e+00    -3.38538e+00
H       1.33902e+01    -3.16073e+00    -2.79736e+00
H       1.25563e+01    -2.17920e+00    -3.70465e+00
O      -1.90354e+00     7.60057e+00     1.07474e+00
H      -1.67571e+00     6.62350e+00     1.16548e+00
H      -1.34090e+00     7.86063e+00     3.15716e-01
O      -2.49551e+00     9.10406e+00    -5.53728e+00
H      -1.65280e+00     9.44284e+00    -5.84412e+00
H      -3.06291e+00     9.15685e+00    -6.33759e+00
O       3.25546e+00    -4.30233e+00    -1.14614e+01
H       2.44203e+00    -4.35938e+00    -1.08863e+01
H       3.69884e+00    -5.14567e+00    -1.15910e+01
O       3.58195e+00     9.31858e+00    -1.09502e+01
H       3.27393e+00     1.00893e+01    -1.14343e+01
H       4.56399e+00     9.35555e+00    -1.10350e+01
O      -3.59353e+00     8.19451e+00     1.09053e+01
H      -3.77364e+00     7.37041e+00     1.14317e+01
H      -4.11686e+00     8.21677e+00     1.00407e+01
O      -4.33192e+00     1.78383e+00     7.00253e+00
H      -4.11571e+00     1.99066e+00     7.94202e+00
H      -5.27473e+00     1.81023e+00     6.87032e+00
O      -1.17207e+01     9.21301e+00     1.14907e+01
H      -1.20818e+01     8.78376e+00     1.22931e+01
H      -1.10650e+01     8.65037e+00     1.11484e+01
O       9.64236e+00    -6.76324e+00    -7.47787e+00
H       1.00738e+01    -6.29675e+00    -6.71069e+00
H       8.79671e+00    -7.05483e+00    -7.07486e+00
O      -7.01824e+00    -5.75471e+00     1.06645e+01
H      -6.37914e+00    -5.01941e+00     1.08374e+01
H      -7.49953e+00    -5.89218e+00     1.15255e+01
O      -9.35918e+00     6.22958e+00    -3.31854e+00
H      -9.86229e+00     5.55517e+00    -2.79517e+00
H      -9.57337e+00     6.05757e+00    -4.24533e+00
O       1.29091e+01     7.71197e+00     8.48729e+00
H       1.26241e+01     7.24982e+00     9.32111e+00
H       1.31518e+01     7.00752e+00     7.86129e+00
O       1.11023e+01     8.92115e+00     6.67538e-01
H       1.18013e+01     8.88046e+00     9.00512e-03
H       1.06347e+01     8.05190e+00     5.82815e-01
O       8.90645e+00     9.92559e-01     6.30749e+00
H       7.98669e+00     1.28687e+00     6.61349e+00
H       8.91370e+00     1.01942e+00     5.32098e+00
O      -9.61823e+00     2.09794e+00    -9.91985e+00
H      -9.54143e+00     1.14570e+00    -9.54911e+00
H      -1.04736e+01     2.38652e+00    -9.51845e+00
O      -5.76849e+00     7.69363e+00    -5.77668e+00
H      -6.60855e+00     7.46871e+00    -6.20051e+00
H      -5.38034e+00     8.25322e+00    -6.45119e+00
O       5.50316e+00     1.03650e+01     6.33788e+00
H       4.80662e+00     1.09065e+01     5.80463e+00
H       6.39011e+00     1.07051e+01     6.26078e+00
O       5.03221e+00     1.93732e+00     1.37407e+01
H       4.03244e+00     2.13931e+00     1.37449e+01
H       5.37424e+00     2.73337e+00     1.33023e+01
O      -9.01051e+00     9.82532e+00    -1.01922e+01
H      -8.73117e+00     1.05186e+01    -9.53694e+00
H      -9.52564e+00     1.02104e+01    -1.09425e+01
O       4.05889e+00    -6.96631e+00    -1.15174e+01
H       4.63413e+00    -7.48372e+00    -1.20927e+01
H       3.15845e+00    -7.37066e+00    -1.13255e+01
O      -3.86479e+00    -1.01568e+01     6.83825e+00
H      -4.69264e+00    -1.06667e+01     6.73198e+00
H      -3.89543e+00    -9.62752e+00     7.68721e+00
O       5.38002e+00     1.12860e+01     1.14988e+01
H       5.34604e+00     1.09438e+01     1.05427e+01
H       4.51016e+00     1.15694e+01     1.17875e+01
O       8.26687e+00     1.71437e+00    -3.06750e+00
H       9.16284e+00     1.35098e+00    -2.87392e+00
H       7.95704e+00     1.30657e+00    -3.90478e+00
O      -1.10827e+01    -7.06314e+00    -3.42898e+00
H      -1.01303e+01    -7.15769e+00    -3.30814e+00
H      -1.13184e+01    -7.24473e+00    -4.35829e+00
O      -4.64283e+00     7.89227e+00     1.31674e+00
H      -4.58899e+00     7.97357e+00     2.28178e+00
H      -3.71612e+00     7.74298e+00     1.01709e+00
O      -3.28080e+00    -1.31781e+00    -8.54810e+00
H      -3.03166e+00    -8.44231e-01    -7.68318e+00
H      -4.07811e+00    -8.72187e-01    -8.94018e+00
O       1.12150e+01     2.27870e+00     6.88623e+00
H       1.02856e+01     1.97327e+00     6.69861e+00
H       1.15968e+01     1.32414e+00     6.95060e+00
O       3.87797e+00    -2.04412e+00    -6.03875e+00
H       3.57201e+00    -1.34336e+00    -5.45109e+00
H       3.51249e+00    -2.90433e+00    -5.75987e+00
O       1.21113e+01     9.55276e+00    -1.87972e+00
H       1.27645e+01     9.12183e+00    -2.55299e+00
H       1.24407e+01     1.04142e+01    -1.76177e+00
O      -1.12681e+01    -6.50985e+00     5.31864e+00
H      -1.16996e+01    -5.99080e+00     4.63094e+00
H      -1.07736e+01    -7.19416e+00     4.83952e+00
O      -9.82703e+00     2.33676e+00    -3.32610e+00
H      -9.87805e+00     1.43749e+00    -2.97362e+00
H      -9.28461e+00     2.35060e+00    -4.14708e+00
O      -2.66468e+00     4.84783e+00     3.70480e+00
H      -2.65444e+00     5.57807e+00     4.38983e+00
H      -2.59637e+00     4.03356e+00     4.31163e+00
O       3.99730e-01    -3.52192e+00     5.15672e+00
H       7.39029e-01    -2.96237e+00     4.43247e+00
H      -5.61541e-01    -3.63142e+00     5.00819e+00
O       2.71778e+00     7.14398e+00    -1.22871e+01
H       3.01014e+00     8.02297e+00    -1.18753e+01
H       1.75475e+00     7.06530e+00    -1.24209e+01
O       7.13597e+00    -4.51176e+00    -4.15631e+00
H       6.49969e+00    -4.54632e+00    -3.44631e+00
H       7.00287e+00    -3.65686e+00    -4.60320e+00
O       3.54039e+00    -3.83997e+00     7.28212e-01
H       4.04422e+00    -3.53332e+00     1.48937e+00
H       2.63816e+00    -3.78627e+00     1.10774e+00
O      -6.06321e+00     5.68298e+00     5.30413e+00
H      -6.33742e+00     6.57770e+00     5.02778e+00
H      -5.34795e+00     5.89988e+00     5.92581e+00
O       2.31868e+00     8.99481e+00     4.44630e+00
H       1.88479e+00     8.22425e+00     4.15290e+00
H       3.08274e+00     8.68703e+00     5.02840e+00
1500
24.662 0.000 0.000 0.000 24.662 0.000 0.000 0.000 24.662
O       1.16823e+01     9.96151e+00    -1.04200e+01
H       1.12190e+01     9.63357e+00    -9.62003e+00
H       1.25205e+01     1.03806e+01    -1.00178e+01
O       1.39716e+01    -5.51581e+00     1.08448e+01
H       1.45738e+01    -6.04926e+00     1.03070e+01
H       1.44058e+01    -5.38491e+00     1.17047e+01
O       8.93068e+00    -5.37833e+00     4.41140e+00
H       8.28938e+00    -4.76936e+00     4.05090e+00
H       8.86320e+00    -5.14724e+00     5.31037e+00
O       5.32040e+00     1.04305e+01     9.57671e+00
H       5.38673e+00     1.08846e+01     8.72726e+00
H       5.83702e+00     9.55097e+00     9.53771e+00
O       5.84273e+00    -3.93589e+00     5.83116e+00
H       6.42035e+00    -4.42511e+00     6.43168e+00
H       6.21755e+00    -4.06931e+00     4.95473e+00
O      -3.94584e+00    -2.81388e+00     5.33096e+00
H      -3.62947e+00    -2.12531e+00     5.88944e+00
H      -4.31878e+00    -3.42228e+00     6.01950e+00
O       1.22358e+01     4.18178e+00     4.31502e+00
H       1.26716e+01     4.92794e+00     4.70632e+00
H       1.22658e+01     3.51465e+00     5.05004e+00
O      -3.25408e+00     5.68033e+00     1.14385e+01
H      -4.10250e+00     5.13756e+00     1.12347e+01
H      -2.86920e+00     5.64764e+00     1.05708e+01
O       7.40723e+00    -8.69136e+00     1.00214e+01
H       8.06092e+00    -8.27833e+00     9.43151e+00
H       7.06393e+00    -9.34977e+00     9.35434e+00
O       1.03891e+01     1.20063e+01     7.16900e-01
H       1.04123e+01     1.25731e+01    -1.42245e-01
H       1.07003e+01     1.10980e+01     4.35197e-01
O      -4.14903e-01    -1.01134e+01    -6.31652e-01
H       8.50692e-02    -9.26887e+00    -8.59490e-01
H      -1.07845e+00    -9.90889e+00     1.43178e-01
O      -1.93395e+00    -9.97889e+00     1.45180e+00
H      -2.56555e+00    -9.33268e+00     1.83379e+00
H      -1.62389e+00    -1.05488e+01     2.18963e+00
O       3.44383e+00     3.59265e+00     1.30983e+01
H       3.57687e+00     4.50607e+00     1.35597e+01
H       3.32228e+00     3.76258e+00     1.21639e+01
O       1.09657e+01     5.21501e+00    -1.12540e+01
H       1.04260e+01     5.36750e+00    -1.20675e+01
H       1.06259e+01     5.71040e+00    -1.05005e+01
O       1.43696e+01    -6.66342e+00     1.00630e+00
H       1.47309e+01    -6.49631e+00     1.03313e-01
H       1.36888e+01    -7.39028e+00     9.08700e-01
O       6.17116e+00     2.27664e+00    -6.31997e+00
H       6.40201e+00     3.20880e+00    -6.05692e+00
H       6.27669e+00     2.35244e+00    -7.30876e+00
O       3.89829e+00    -1.03450e+01     9.98544e+00
H       3.40772e+00    -1.07921e+01     1.06853e+01
H       3.33207e+00    -1.02448e+01     9.20618e+00
O      -8.01652e-01    -6.21976e+00    -5.10000e+00
H      -1.19376e+00    -5.97167e+00    -4.25202e+00
H       1.04373e-01    -6.56122e+00    -4.91352e+00
O      -2.96615e+00     1.14559e+01     3.40358e+00
H      -2.09007e+00     1.19373e+01     3.44872e+00
H      -3.05090e+00     1.14875e+01     2.42602e+00
O      -1.16112e+01    -8.91845e+00    -5.69039e+00
H      -1.14953e+01    -9.78798e+00    -5.19028e+00
H      -1.18560e+01    -8.21699e+00    -5.03464e+00
O      -5.65865e+00    -6.63524e+00     6.20439e+00
H      -5.38411e+00    -5.79525e+00     6.55678e+00
H      -4.81462e+00    -7.05326e+00     5.84600e+00
O      -1.28596e+01    -4.21729e+00     9.20326e+00
H      -1.21485e+01    -4.02338e+00     8.52800e+00
H      -1.21835e+01    -4.50329e+00     9.93384e+00
O      -9.65559e+00     2.09691e+00     9.32034e+00
H      -9.64344e+00     2.17259e+00     1.03038e+01
H      -9.76131e+00     1.17807e+00     9.05167e+00
O       1.26588e+01    -1.19539e+01     7.75422e+00
H       1.35215e+01    -1.18002e+01     8.15797e+00
H       1.27403e+01    -1.22186e+01     6.85121e+00
O       1.10685e+01    -6.95678e+00     1.30966e+00
H       1.08526e+01    -7.41762e+00     2.10984e+00
H       1.02054e+01    -6.67633e+00     9.39229e-01
O      -8.17008e+00     1.05398e+01    -4.48482e+00
H      -7.26488e+00     1.01041e+01    -4.53272e+00
H      -8.75861e+00     9.68982e+00    -4.36076e+00
O       2.93450e+00    -1.63862e+00    -8.74687e+00
H       2.57943e+00    -7.47240e-01    -8.73648e+00
H       3.21676e+00    -1.79119e+00    -7.81202e+00
O      -6.80180e+00     5.92525e+00     1.34599e+00
H      -6.56184e+00     6.73841e+00     8.19433e-01
H      -5.90583e+00     5.73651e+00     1.68009e+00
O       8.81564e-01     6.74686e+00    -1.22712e+01
H       5.38042e-01     6.52925e+00    -1.13943e+01
H       4.08938e-01     7.52255e+00    -1.26664e+01
O       1.46789e+00    -7.04878e+00    -4.06337e+00
H       1.23281e+00    -7.56531e+00    -3.24198e+00
H       1.66747e+00    -6.13495e+00    -3.77280e+00
O      -1.14146e+01     3.66131e+00     7.99873e+00
H      -1.17114e+01     3.04344e+00     7.23600e+00
H      -1.09476e+01     3.06622e+00     8.60724e+00
O      -5.36834e+00    -2.37673e+00    -3.97339e+00
H      -5.89039e+00    -2.55170e+00    -4.82070e+00
H      -5.41827e+00    -1.44246e+00    -3.64422e+00
O      -6.12632e+00     8.20873e+00     5.25791e+00
H      -6.75068e+00     8.14116e+00     4.47156e+00
H      -6.67433e+00     7.96596e+00     6.01117e+00
O       6.08428e+00    -4.26372e+00    -2.87289e+00
H       5.42613e+00    -4.81365e+00    -2.49680e+00
H       6.70501e+00    -3.99918e+00    -2.17185e+00
O       1.07798e+01    -4.15499e+00     2.46516e+00
H       1.02850e+01    -4.85223e+00     2.86675e+00
H       1.09092e+01    -3.37347e+00     3.07495e+00
O       9.92473e+00     6.43686e+00     1.09332e+01
H       9.49194e+00     5.73973e+00     1.04353e+01
H       1.08414e+01     6.40184e+00     1.05938e+01
O      -1.86800e+00    -1.19317e+01    -7.48548e+00
H      -1.29993e+00    -1.27536e+01    -7.38200e+00
H      -1.55849e+00    -1.14227e+01    -8.24761e+00
O       1.18991e+01     5.19067e+00    -3.57236e+00
H       1.13435e+01     5.10654e+00    -2.75501e+00
H       1.16983e+01     4.41528e+00    -4.14641e+00
O      -9.90946e+00     1.03548e+01     5.39888e+00
H      -9.16166e+00     1.09703e+01     5.13836e+00
H      -9.79162e+00     1.00295e+01     6.30097e+00
O       9.84412e+00    -1.08011e+01    -6.45329e+00
H       9.25507e+00    -1.00628e+01    -6.11008e+00
H       1.05099e+01    -1.03392e+01    -6.98979e+00
O       4.82860e+00    -7.96757e+00    -1.34308e+00
H       4.26476e+00    -7.18656e+00    -1.24939e+00
H       4.39772e+00    -8.69078e+00    -8.77591e-01
O      -1.64413e+00     8.90200e+00     8.94038e+00
H      -2.42678e+00     8.59949e+00     9.45015e+00
H      -1.89631e+00     9.76222e+00     8.54819e+00
O      -5.75715e+00    -7.98876e+00    -1.02825e+00
H      -5.44121e+00    -8.81120e+00    -7.27818e-01
H      -6.58067e+00    -8.03023e+00    -1.56089e+00
O      -6.93456e+00    -8.44437e+00    -7.21587e+00
H      -6.07604e+00    -8.88321e+00    -7.19041e+00
H      -7.62939e+00    -9.22749e+00    -7.30984e+00
O      -7.71810e+00    -1.17648e+00     2.12579e+00
H      -6.94961e+00    -1.46479e+00     2.65811e+00
H      -7.33416e+00    -7.66245e-01     1.36576e+00
O       2.58021e+00    -4.61397e+00     1.00815e+01
H       2.68228e+00    -4.44121e+00     1.10565e+01
H       3.37271e+00    -5.11404e+00     9.82036e+00
O       1.09660e+01     7.96280e-01    -3.35729e+00
H       1.09544e+01     5.52963e-03    -3.91274e+00
H       1.14127e+01     6.03653e-01    -2.49947e+00
O       1.00233e+01     1.05655e+01     5.24550e+00
H       9.97250e+00     1.00641e+01     6.11349e+00
H       1.09217e+01     1.09212e+01     5.11430e+00
O       1.55301e+00    -8.35109e+00    -1.08086e+01
H       1.39988e+00    -8.28940e+00    -9.82788e+00
H       6.69656e-01    -8.40640e+00    -1.13562e+01
O      -1.04077e+01    -9.39781e+00     1.07146e+01
H      -9.71575e+00    -9.50174e+00     1.14364e+01
H      -1.12645e+01    -9.43383e+00     1.11973e+01
O       8.48118e+00     1.28511e+01     9.00206e+00
H       9.36821e+00     1.33487e+01     9.26451e+00
H       8.13552e+00     1.24824e+01     9.87003e+00
O      -6.47730e+00    -4.63631e+00     2.05657e+00
H      -6.71929e+00    -4.99587e+00     2.97884e+00
H      -5.89606e+00    -3.83741e+00     2.31306e+00
O      -1.30129e+01    -8.90033e+00    -7.95530e+00
H      -1.24640e+01    -8.85928e+00    -7.11202e+00
H      -1.37596e+01    -8.28627e+00    -7.76566e+00
O       9.37838e+00    -8.03334e+00     3.78633e+00
H       8.80357e+00    -8.23403e+00     3.01791e+00
H       9.08287e+00    -7.13680e+00     4.08371e+00
O      -1.10346e+01     8.72792e+00    -7.08090e+00
H      -1.08787e+01     8.09448e+00    -7.81549e+00
H      -1.19871e+01     8.71325e+00    -6.94660e+00
O       3.13143e+00    -2.24658e+00     9.01991e+00
H       4.06912e+00    -2.18999e+00     9.06805e+00
H       2.80103e+00    -3.08987e+00     9.53051e+00
O       1.16541e+01    -9.77440e+00     1.16569e+01
H       1.13463e+01    -1.01278e+01     1.07867e+01
H       1.20442e+01    -1.04983e+01     1.22332e+01
O       5.65810e+00     4.01468e+00    -1.04581e+00
H       5.69962e+00     3.07004e+00    -7.28127e-01
H       5.13386e+00     3.96180e+00    -1.86142e+00
O      -1.14010e+01    -3.55827e+00    -7.30192e+00
H      -1.19894e+01    -2.71929e+00    -7.45461e+00
H      -1.06531e+01    -3.13986e+00    -6.75500e+00
O       6.80450e+00    -3.83027e+00     3.40233e+00
H       6.84652e+00    -2.85286e+00     3.24425e+00
H       6.41406e+00    -4.24364e+00     2.57508e+00
O       8.29717e+00     8.63738e+00     1.16038e+01
H       8.83045e+00     7.78865e+00     1.15349e+01
H       8.96299e+00     9.37240e+00     1.14734e+01
O      -7.35455e+00     1.04740e+01    -2.05255e-01
H      -6.88014e+00     9.59639e+00    -8.33679e-02
H      -8.08134e+00     1.04699e+01     4.47993e-01
O       1.02848e+01    -5.26076e+00    -9.56254e+00
H       1.00854e+01    -5.77544e+00    -1.04440e+01
H       9.90601e+00    -5.78282e+00    -8.86524e+00
O      -1.19762e+00    -9.24529e-01    -2.84104e+00
H      -1.90473e+00    -1.60009e+00    -3.14283e+00
H      -1.61431e+00    -1.31033e-01    -3.19473e+00
O       6.77372e+00    -4.31551e+00     9.19626e+00
H       6.08866e+00    -5.02203e+00     9.18465e+00
H       7.07694e+00    -4.38077e+00     1.01539e+01
O       1.27799e+01    -9.62819e+00     6.18512e+00
H       1.26215e+01    -1.03214e+01     6.85002e+00
H       1.26839e+01    -8.73297e+00     6.56511e+00
O      -7.81805e+00    -4.31820e+00    -1.32466e-01
H      -7.12515e+00    -4.26014e+00    -7.89755e-01
H      -7.30770e+00    -4.57764e+00     7.35239e-01
O       2.55984e+00     1.39812e+01    -7.26786e+00
H       2.36149e+00     1.38681e+01    -6.29786e+00
H       3.43294e+00     1.35784e+01    -7.35605e+00
O       4.73552e+00    -1.25216e+01     4.57388e+00
H       5.13298e+00    -1.25892e+01     3.70348e+00
H       4.81469e+00    -1.15728e+01     4.84063e+00
O       3.32222e+00     8.05544e+00    -7.55054e-02
H       3.45975e+00     8.45100e+00     8.20571e-01
H       3.56587e+00     7.06797e+00    -2.20565e-02
O      -1.10954e+01    -1.35564e+01    -8.80979e+00
H      -1.11402e+01    -1.40245e+01    -7.94751e+00
H      -1.14662e+01    -1.26776e+01    -8.59044e+00
O       1.32886e+01    -1.00257e+01    -1.39380e+00
H       1.30702e+01    -9.17051e+00    -1.72186e+00
H       1.31179e+01    -9.91185e+00    -3.56217e-01
O      -6.03420e+00     1.18499e+01     1.04797e+01
H      -6.91648e+00     1.14931e+01     1.04279e+01
H      -5.54281e+00     1.17194e+01     9.61799e+00
O       2.09830e+00    -8.10490e+00    -8.28546e+00
H       2.96435e+00    -7.86297e+00    -8.67283e+00
H       2.23536e+00    -8.96570e+00    -7.85815e+00
O       9.96982e+00     1.47449e+00    -6.56331e+00
H       9.41960e+00     8.11850e-01    -6.13493e+00
H       9.62868e+00     2.30135e+00    -6.15009e+00
O      -3.17471e+00    -4.22827e+00    -5.37324e-01
H      -2.53047e+00    -4.58689e+00    -1.20758e+00
H      -3.56558e+00    -5.02741e+00    -8.59122e-02
O      -8.20942e+00     1.19729e+01    -2.14540e+00
H      -7.94057e+00     1.15204e+01    -2.98852e+00
H      -7.95223e+00     1.13578e+01    -1.45376e+00
O       8.62991e+00    -9.95008e+00    -2.69086e+00
H       8.12648e+00    -9.33756e+00    -2.12354e+00
H       8.80310e+00    -9.69112e+00    -3.56068e+00
O       1.37008e+01     5.52227e+00    -7.99316e+00
H       1.27914e+01     5.54441e+00    -7.59329e+00
H       1.37761e+01     6.25014e+00    -8.63526e+00
O      -4.27109e+00     5.07717e+00    -5.63156e+00
H      -3.88844e+00     5.95728e+00    -5.71704e+00
H      -4.85902e+00     5.25242e+00    -4.85453e+00
O      -8.65856e+00    -1.15733e+01    -5.30077e+00
H      -8.46978e+00    -1.25819e+01    -5.17784e+00
H      -7.90269e+00    -1.11273e+01    -4.85677e+00
O      -1.02666e+01     2.56864e+00    -1.28478e+01
H      -9.89863e+00     2.48908e+00    -1.18997e+01
H      -1.11011e+01     2.04289e+00    -1.28078e+01
O      -1.11371e+01     5.09974e+00    -1.23715e+01
H      -1.19998e+01     5.02840e+00    -1.18974e+01
H      -1.08824e+01     4.18758e+00    -1.26558e+01
O      -5.45461e+00    -2.47700e+00     3.11309e+00
H      -4.99016e+00    -2.04502e+00     2.34861e+00
H      -4.79755e+00    -2.71361e+00     3.79182e+00
O       4.61238e+00    -2.03287e+00    -1.05638e+01
H       4.10888e+00    -2.66557e+00    -1.11221e+01
H       3.86875e+00    -1.73321e+00    -9.93266e+00
O      -8.03400e+00    -9.50974e+00    -1.21857e+01
H      -7.15678e+00    -9.92099e+00    -1.23333e+01
H      -8.43579e+00    -9.68008e+00    -1.12810e+01
O       7.92067e+00     1.06952e+01     1.51870e+00
H       8.02783e+00     1.03059e+01     6.25417e-01
H       8.65231e+00     1.13158e+01     1.55129e+00
O       1.07180e+01    -1.14737e+01    -1.76366e+00
H       1.00406e+01    -1.08365e+01    -2.02308e+00
H       1.15984e+01    -1.10657e+01    -1.71283e+00
O       3.15418e-01     5.68152e+00    -9.78157e+00
H       5.16732e-01     4.65845e+00    -9.88223e+00
H       1.09091e+00     6.04680e+00    -9.29089e+00
O      -2.87639e+00    -2.75811e+00    -4.35064e+00
H      -3.82450e+00    -2.55025e+00    -4.12002e+00
H      -2.87873e+00    -3.24101e+00    -5.17944e+00
O      -2.49932e+00    -3.11054e+00     1.76326e+00
H      -2.25595e+00    -2.21389e+00     1.53994e+00
H      -2.59525e+00    -3.57470e+00     9.05201e-01
O      -4.92143e+00     7.91044e+00    -2.64957e+00
H      -3.93693e+00     8.00148e+00    -2.77689e+00
H      -5.29844e+00     8.62378e+00    -3.18907e+00
O       9.75099e+00     4.45935e+00     3.44689e+00
H       9.04844e+00     4.64541e+00     4.14239e+00
H       1.06187e+01     4.35050e+00     3.92530e+00
O       1.08302e+00     1.13375e+01     1.24948e+01
H       8.59341e-01     1.10046e+01     1.33804e+01
H       1.16233e+00     1.04768e+01     1.19930e+01
O       2.85005e+00     1.33856e+00    -4.85659e-01
H       2.65476e+00     2.26674e+00    -6.99927e-01
H       2.02364e+00     1.06382e+00     2.14773e-02
O       9.24606e+00    -6.14150e+00    -3.06414e-01
H       8.77229e+00    -6.83558e+00    -7.98269e-01
H       9.81325e+00    -5.66400e+00    -9.67558e-01
O       1.16968e+01    -1.14935e+01    -8.89100e+00
H       1.16505e+01    -1.05524e+01    -8.67006e+00
H       1.07718e+01    -1.17583e+01    -8.84726e+00
O      -4.13966e-01    -1.41875e+00     1.38789e+01
H      -1.24608e+00    -1.34974e+00     1.44457e+01
H       7.32676e-02    -2.25469e+00     1.41511e+01
O      -3.70548e-01     1.02180e+01    -2.75884e+00
H      -2.47794e-01     1.08665e+01    -2.02062e+00
H       4.06418e-01     1.03969e+01    -3.35065e+00
O      -1.17126e+01    -7.07688e+00     6.86950e+00
H      -1.10572e+01    -6.87301e+00     7.58563e+00
H      -1.14672e+01    -6.63031e+00     6.03296e+00
O       7.66533e+00     1.10245e+01    -4.42585e+00
H       8.57474e+00     1.09436e+01    -4.04933e+00
H       7.29356e+00     1.17252e+01    -3.78162e+00
O       2.33152e+00    -5.91699e+00     4.46675e+00
H       2.75624e+00    -5.95596e+00     3.59887e+00
H       1.77586e+00    -5.11512e+00     4.52420e+00
O       8.95912e+00    -9.36516e-01    -1.03955e+01
H       9.04860e+00    -1.44813e-01    -9.84352e+00
H       8.12984e+00    -7.76512e-01    -1.08881e+01
O      -8.91846e+00     5.39649e+00    -6.39167e+00
H      -8.33609e+00     6.12585e+00    -6.81090e+00
H      -9.78111e+00     5.46685e+00    -6.91914e+00
O       1.03991e+01     4.76495e+00    -9.97827e-01
H       1.02323e+01     5.68349e+00    -6.74037e-01
H       9.53951e+00     4.47209e+00    -1.35414e+00
O       1.63474e+00     7.08636e+00     4.15478e+00
H       1.51126e+00     6.28452e+00     3.64858e+00
H       1.64654e+00     6.87196e+00     5.09927e+00
O       3.66720e+00     9.80607e+00    -6.13999e+00
H       3.90200e+00     8.89805e+00    -5.91846e+00
H       4.50618e+00     1.02864e+01    -6.29850e+00
O      -6.74087e+00    -2.93174e+00    -6.25166e+00
H      -6.34367e+00    -3.57580e+00    -6.88793e+00
H      -7.65780e+00    -3.12318e+00    -6.11396e+00
O       1.00991e+00     5.83666e+00    -2.23436e+00
H       9.55492e-02     5.74466e+00    -2.56611e+00
H       9.21435e-01     6.73707e+00    -1.80984e+00
O      -7.18305e+00    -6.10292e+00     4.00281e+00
H      -6.60766e+00    -6.28995e+00     4.83058e+00
H      -7.84165e+00    -5.42315e+00     4.26182e+00
O       1.30701e+01    -4.63074e+00    -2.24311e+00
H       1.38869e+01    -4.68640e+00    -1.65232e+00
H       1.31052e+01    -5.45970e+00    -2.74618e+00
O       1.02968e+00    -3.49582e+00    -9.74751e+00
H       8.29893e-01    -4.23578e+00    -9.17768e+00
H       1.73538e+00    -3.00375e+00    -9.17600e+00
O      -4.79600e+00     1.82938e+00    -1.06754e+01
H      -5.59784e+00     2.40267e+00    -1.03594e+01
H      -3.93767e+00     2.32913e+00    -1.06870e+01
O       8.54900e-01    -3.79864e+00     2.30407e-02
H       9.83225e-01    -3.39605e+00    -8.85595e-01
H       9.60070e-01    -3.11840e+00     7.33371e-01
O      -3.07537e+00    -1.25113e+01     7.49303e-01
H      -3.06797e+00    -1.15712e+01     8.36383e-01
H      -2.20015e+00    -1.27589e+01     3.05144e-01
O      -1.65592e+00    -6.32250e+00     5.72463e+00
H      -2.45487e+00    -6.78754e+00     5.42761e+00
H      -1.72776e+00    -5.43863e+00     5.37838e+00
O      -5.87473e+00    -4.24816e+00    -8.30430e+00
H      -5.92502e+00    -5.20247e+00    -8.47779e+00
H      -6.06805e+00    -3.93290e+00    -9.23898e+00
O      -8.01966e+00     3.07198e+00    -6.01545e+00
H      -7.11867e+00     2.89088e+00    -6.32604e+00
H      -8.13752e+00     4.03136e+00    -6.21650e+00
O      -6.28202e+00    -1.01897e+01     2.05883e+00
H      -7.07417e+00    -9.71848e+00     1.80744e+00
H      -6.17003e+00    -1.09594e+01     1.44031e+00
O       7.01419e-01    -6.68701e+00     1.03824e+01
H       1.51522e+00    -6.18630e+00     1.02043e+01
H       5.24965e-01    -7.00451e+00     9.48485e+00
O      -1.18044e+01    -4.19204e+00    -9.95700e+00
H      -1.15010e+01    -4.21573e+00    -9.00249e+00
H      -1.27454e+01    -4.59491e+00    -9.92208e+00
O       1.58865e+00     6.15147e+00     6.95333e+00
H       1.01711e+00     6.92529e+00     7.06657e+00
H       2.39595e+00     6.39125e+00     7.44369e+00
O      -8.90645e+00     4.25141e-01     4.29964e+00
H      -8.71815e+00     1.40385e+00     4.55677e+00
H      -8.26990e+00     2.24156e-01     3.56643e+00
O       5.55309e+00     2.19695e+00     8.32250e+00
H       5.83007e+00     1.95767e+00     9.23503e+00
H       4.62093e+00     1.97646e+00     8.35111e+00
O      -7.27176e+00    -7.02859e+00    -1.16141e+01
H      -7.60756e+00    -7.99604e+00    -1.18038e+01
H      -8.16649e+00    -6.55943e+00    -1.14975e+01
O      -9.79920e+00    -2.57382e+00     2.72580e+00
H      -1.02440e+01    -3.29966e+00     2.29017e+00
H      -9.20204e+00    -2.15008e+00     2.14771e+00
O       4.11823e+00    -6.10205e+00     6.40501e+00
H       4.76192e+00    -5.36692e+00     6.23042e+00
H       3.47448e+00    -6.03418e+00     5.63962e+00
O      -6.86581e+00     7.74083e+00    -1.01364e+01
H      -7.73317e+00     8.11107e+00    -1.04273e+01
H      -6.71872e+00     6.85105e+00    -1.06765e+01
O       4.76900e+00     6.18789e+00     1.01037e+01
H       4.27370e+00     6.67503e+00     1.08403e+01
H       4.42344e+00     6.60821e+00     9.26739e+00
O       6.72020e+00     8.28722e+00     9.74007e+00
H       7.18006e+00     8.53236e+00     1.05248e+01
H       6.14633e+00     7.52003e+00     9.87415e+00
O      -8.08973e+00     7.31988e+00     3.39668e+00
H      -7.76723e+00     6.92935e+00     2.59218e+00
H      -8.87771e+00     7.91233e+00     3.21804e+00
O       1.30844e+00     4.86313e+00     2.32262e+00
H       2.09798e+00     4.86145e+00     1.67395e+00
H       4.81732e-01     5.24348e+00     1.87657e+00
O      -1.68039e+00     2.77268e+00     5.14778e+00
H      -1.29197e+00     3.24096e+00     5.91075e+00
H      -2.54729e+00     2.39159e+00     5.48020e+00
O      -7.31767e+00    -7.79630e+00     8.05316e+00
H      -7.25074e+00    -8.73199e+00     7.79714e+00
H      -6.92409e+00    -7.27744e+00     7.32509e+00
O      -7.89085e+00    -1.03476e+01     7.02485e+00
H      -7.09466e+00    -1.08881e+01     6.78103e+00
H      -8.37962e+00    -1.02030e+01     6.17879e+00
O       4.24543e+00     5.87094e+00    -1.05250e+01
H       5.23235e+00     5.76848e+00    -1.04791e+01
H       4.18572e+00     6.43059e+00    -1.13551e+01
O      -1.72774e+00    -4.10315e+00     4.21304e+00
H      -1.97004e+00    -3.97972e+00     3.28185e+00
H      -2.42412e+00    -3.52194e+00     4.67602e+00
O       3.42373e+00     2.23304e+00    -5.51314e+00
H       4.39740e+00     2.40787e+00    -5.81180e+00
H       2.89382e+00     2.97289e+00    -5.94402e+00
O      -2.87311e+00    -8.73287e+00     9.00424e+00
H      -3.64027e+00    -8.36724e+00     9.47588e+00
H      -2.44402e+00    -9.36961e+00     9.63864e+00
O       1.31255e+01     3.47381e-01     2.78412e+00
H       1.39497e+01     1.29709e-01     3.31475e+00
H       1.33231e+01     1.23088e+00     2.38545e+00
O      -5.72986e+00     1.00793e+01    -1.02396e+01
H      -6.03654e+00     9.15246e+00    -1.03319e+01
H      -5.10749e+00     1.02267e+01    -1.09746e+01
O       1.15719e+01    -5.30961e+00    -5.65531e+00
H       1.09094e+01    -4.76251e+00    -5.17208e+00
H       1.22493e+01    -4.79785e+00    -6.09113e+00
O       1.20738e+00     3.00239e+00    -1.01975e+01
H       4.69571e-01     2.81084e+00    -1.08216e+01
H       2.01208e+00     3.20832e+00    -1.07686e+01
O       2.87994e+00    -1.45395e-01     1.06682e+01
H       3.85038e+00    -1.55296e-01     1.07039e+01
H       2.64650e+00    -9.25734e-01     1.00806e+01
O       1.91760e+00    -2.18857e+00     6.57002e+00
H       2.19712e+00    -2.41891e+00     7.48190e+00
H       1.66260e+00    -2.96223e+00     6.03113e+00
O      -7.51543e+00     5.20971e+00     8.85508e+00
H      -6.81579e+00     4.98167e+00     9.49179e+00
H      -7.58166e+00     4.44725e+00     8.19133e+00
O       2.79354e+00     3.99027e+00     1.04287e+01
H       1.81877e+00     4.32794e+00     1.05206e+01
H       3.34322e+00     4.73672e+00     1.01395e+01
O      -9.75669e+00    -5.25211e-01     8.60421e+00
H      -9.16378e+00    -7.16196e-01     7.84796e+00
H      -9.19875e+00    -9.28870e-01     9.35861e+00
O       7.50148e+00    -6.55805e+00    -6.37675e+00
H       7.55441e+00    -5.65932e+00    -5.95134e+00
H       6.59614e+00    -6.52442e+00    -6.75418e+00
O      -2.88079e+00    -7.12604e+00    -1.25341e+01
H      -3.56455e+00    -7.44124e+00    -1.32432e+01
H      -3.20515e+00    -6.23038e+00    -1.21978e+01
O      -2.32458e+00     3.67160e+00    -4.69683e+00
H      -1.68539e+00     3.57300e+00    -5.48026e+00
H      -3.20551e+00     3.97280e+00    -5.05440e+00
O      -8.56469e+00    -4.43988e+00     9.30031e+00
H      -8.05764e+00    -5.02509e+00     9.90888e+00
H      -8.05349e+00    -4.33618e+00     8.47109e+00
O       1.25859e+01     1.19609e+01     5.33259e+00
H       1.25114e+01     1.23686e+01     4.40879e+00
H       1.33142e+01     1.13140e+01     5.28060e+00
O      -3.57059e+00    -8.00038e+00     4.89096e+00
H      -3.94264e+00    -8.36904e+00     4.11455e+00
H      -3.45454e+00    -8.73640e+00     5.62904e+00
O      -4.81439e+00     4.24814e+00     2.51651e+00
H      -3.89699e+00     4.45994e+00     2.74011e+00
H      -5.24997e+00     4.40304e+00     3.37576e+00
O       6.88679e+00     8.42166e+00    -1.07724e+01
H       7.40831e+00     8.43766e+00    -1.16051e+01
H       7.29809e+00     8.95701e+00    -1.00567e+01
O       5.52313e+00     2.90468e+00     4.25469e+00
H       5.75602e+00     2.41135e+00     5.07089e+00
H       6.11462e+00     3.64608e+00     4.39046e+00
O       7.65251e+00    -1.23100e+01     1.19094e+01
H       6.88282e+00    -1.28700e+01     1.18338e+01
H       8.42570e+00    -1.28636e+01     1.21955e+01
O       2.27991e-01     4.64826e+00     1.08110e+01
H       4.45499e-01     5.39500e+00     1.13666e+01
H      -4.80852e-01     4.74894e+00     1.01091e+01
O       6.87935e+00     1.36554e+00     6.08263e+00
H       6.43459e+00     1.31463e+00     6.96597e+00
H       6.94825e+00     3.71624e-01     5.83010e+00
O      -3.57271e+00    -4.59469e+00    -1.15686e+01
H      -2.98698e+00    -3.99821e+00    -1.19950e+01
H      -3.40823e+00    -4.66056e+00    -1.06186e+01
O      -8.79535e+00     5.79037e+00     5.37213e+00
H      -8.20869e+00     6.19670e+00     6.08874e+00
H      -8.60426e+00     6.27346e+00     4.57025e+00
O       5.19479e+00    -1.63968e+00    -2.07553e+00
H       5.30929e+00    -2.48600e+00    -2.56155e+00
H       6.10105e+00    -1.18006e+00    -2.07337e+00
O       1.28744e+00    -8.20530e+00    -1.49570e+00
H       1.99515e+00    -8.83764e+00    -1.43748e+00
H       1.46756e+00    -7.51973e+00    -7.95987e-01
O       1.33394e+00     1.17212e+01     8.19464e+00
H       8.11278e-01     1.13847e+01     7.47836e+00
H       1.78257e+00     1.25508e+01     7.85454e+00
O       1.34294e+01    -7.70540e+00    -9.84275e+00
H       1.27762e+01    -7.94024e+00    -9.19127e+00
H       1.29845e+01    -7.36081e+00    -1.06222e+01
O       4.95836e+00     8.87203e+00     6.03132e+00
H       5.67489e+00     8.38896e+00     5.57416e+00
H       5.27189e+00     9.79130e+00     6.26190e+00
O       1.11271e+01     9.14219e+00    -6.33709e+00
H       1.10648e+01     9.99719e+00    -5.94282e+00
H       1.08356e+01     8.51174e+00    -5.63294e+00
O      -2.57064e+00     3.47336e+00    -1.12219e+01
H      -1.74234e+00     2.99280e+00    -1.15541e+01
H      -2.71796e+00     4.31019e+00    -1.16537e+01
O      -5.65920e+00    -1.16306e+01     6.65966e+00
H      -5.45573e+00    -1.25299e+01     7.16809e+00
H      -5.44547e+00    -1.17323e+01     5.66811e+00
O      -7.74555e-01    -1.12953e+01     3.78007e+00
H      -9.24579e-01    -1.13089e+01     4.72880e+00
H       1.69821e-01    -1.13787e+01     3.68948e+00
O      -1.15244e+01    -1.14846e+01    -1.12549e+01
H      -1.20931e+01    -1.15771e+01    -1.04508e+01
H      -1.08424e+01    -1.08995e+01    -1.08744e+01
O      -4.59151e+00    -8.81426e-01     1.08154e+00
H      -5.15509e+00    -1.11319e+00     2.57621e-01
H      -4.65670e+00     8.14791e-02     1.26995e+00
O      -9.17546e+00    -5.51025e+00    -4.43204e+00
H      -8.96620e+00    -5.46634e+00    -3.50143e+00
H      -8.44671e+00    -6.08741e+00    -4.72664e+00
O       7.46037e-01     8.23289e+00    -8.98998e-01
H       5.62670e-01     8.91888e+00    -1.57543e+00
H       1.77059e+00     8.22339e+00    -5.75821e-01
O      -4.82716e+00    -7.96552e+00     1.04216e+01
H      -5.14108e+00    -8.81038e+00     1.08728e+01
H      -5.56986e+00    -7.29389e+00     1.02523e+01
O      -2.57383e-01     1.07220e+01    -6.96244e+00
H       7.80128e-02     1.02678e+01    -7.77061e+00
H       4.55963e-01     1.07996e+01    -6.26382e+00
O       4.76508e-01     2.65348e-01     1.30201e+00
H      -3.95056e-01     9.14023e-02     9.17422e-01
H       4.03073e-01     1.02324e+00     1.89146e+00
O       5.39260e+00    -1.28092e+01     1.78631e+00
H       5.17272e+00    -1.26376e+01     8.70453e-01
H       6.31823e+00    -1.31487e+01     1.83065e+00
O      -9.31573e+00     3.04023e+00     5.22010e+00
H      -9.06525e+00     4.00136e+00     5.02056e+00
H      -1.02298e+01     3.16554e+00     5.51538e+00
O       7.51991e+00     4.98665e+00    -8.13621e+00
H       7.03874e+00     5.51520e+00    -8.87497e+00
H       7.41522e+00     4.10301e+00    -8.53485e+00
O      -3.36791e+00    -7.91409e+00    -9.87212e+00
H      -4.14435e+00    -7.41861e+00    -9.65917e+00
H      -3.11633e+00    -7.67075e+00    -1.08354e+01
O      -2.90048e+00     1.15233e+00    -3.51200e+00
H      -2.64685e+00     1.99176e+00    -3.97637e+00
H      -3.81715e+00     9.39473e-01    -3.66900e+00
O      -3.29896e+00    -1.10666e+01    -1.19234e+01
H      -3.50196e+00    -1.19949e+01    -1.21481e+01
H      -2.58930e+00    -1.08297e+01    -1.25644e+01
O      -9.50543e-01    -1.08955e+01    -5.21873e+00
H      -1.09097e+00    -1.12976e+01    -6.11734e+00
H      -1.52357e+00    -1.14648e+01    -4.68872e+00
O      -2.76599e+00    -1.01728e+01    -1.97983e+00
H      -1.88884e+00    -1.01593e+01    -1.52851e+00
H      -3.48794e+00    -1.04333e+01    -1.34914e+00
O       5.73963e+00    -1.91671e+00     8.93196e+00
H       5.80961e+00    -1.61070e+00     7.94530e+00
H       6.20333e+00    -2.80051e+00     8.94659e+00
O      -1.23565e+01     5.88756e+00     9.67792e+00
H      -1.16189e+01     5.75717e+00     1.03384e+01
H      -1.23780e+01     5.01707e+00     9.26342e+00
O      -2.46108e-01     8.04415e+00     6.92861e+00
H       6.53845e-02     8.91080e+00     6.55723e+00
H      -8.70819e-01     8.25192e+00     7.67010e+00
O      -8.00318e+00    -9.86327e-01     6.62501e+00
H      -7.25109e+00    -3.83951e-01     6.95622e+00
H      -8.38480e+00    -6.28091e-01     5.79369e+00
O       4.53130e+00     7.38694e+00    -5.74433e+00
H       5.07424e+00     6.65861e+00    -6.14707e+00
H       3.92948e+00     6.98640e+00    -5.04603e+00
O      -1.33154e+01    -1.16024e+00    -7.64081e+00
H      -1.28756e+01    -1.12786e+00    -8.48995e+00
H      -1.41432e+01    -1.72319e+00    -7.84210e+00
O      -4.70705e+00    -6.41474e+00     9.60360e-01
H      -5.28026e+00    -6.81312e+00     2.45759e-01
H      -5.32717e+00    -5.90974e+00     1.52276e+00
O      -7.65950e+00    -3.58660e+00     6.93669e+00
H      -7.58992e+00    -2.59059e+00     7.05251e+00
H      -8.08814e+00    -3.78366e+00     6.04734e+00
O       1.25505e+01    -1.59338e+00    -1.01840e+01
H       1.26134e+01    -2.54573e+00    -1.02823e+01
H       1.19480e+01    -1.32999e+00    -1.09077e+01
O       8.18366e+00    -5.07320e+00     7.16642e+00
H       9.05279e+00    -5.43941e+00     7.43087e+00
H       7.63515e+00    -4.96659e+00     7.97322e+00
O       1.13688e+01     4.96758e+00    -6.78418e+00
H       1.13276e+01     3.97292e+00    -6.59209e+00
H       1.09372e+01     5.37023e+00    -5.99457e+00
O       3.61206e+00    -8.63377e+00    -3.97597e+00
H       3.18028e+00    -7.83221e+00    -4.18383e+00
H       3.90253e+00    -8.44067e+00    -3.01524e+00
O       1.06361e+01    -2.30311e+00     4.05590e+00
H       1.05076e+01    -1.33803e+00     4.09656e+00
H       9.99019e+00    -2.59946e+00     4.70711e+00
O       1.53618e+00     1.08963e+01    -4.84632e+00
H       1.80454e+00     1.18393e+01    -4.67648e+00
H       2.27986e+00     1.04265e+01    -5.27593e+00
O       3.16075e+00     1.28433e+01    -1.27725e+01
H       2.37981e+00     1.22989e+01    -1.25421e+01
H       3.21668e+00     1.33982e+01    -1.19520e+01
O       4.10792e-01    -9.25652e+00     6.85625e+00
H       5.23111e-01    -8.75772e+00     5.99578e+00
H       1.18486e-03    -8.63817e+00     7.52417e+00
O       1.02335e+01     8.75941e+00    -8.49126e+00
H       1.05529e+01     8.84770e+00    -7.56389e+00
H       1.00703e+01     7.79987e+00    -8.70407e+00
O       8.00279e+00    -1.08999e+01    -1.05731e+01
H       7.71519e+00    -1.13846e+01    -1.13661e+01
H       8.34810e+00    -1.00666e+01    -1.09766e+01
O      -5.90337e+00    -3.09905e+00    -1.08050e+01
H      -5.55101e+00    -2.20419e+00    -1.05647e+01
H      -5.24326e+00    -3.60399e+00    -1.13633e+01
O       2.97185e+00     5.84283e+00    -4.38592e+00
H       2.26074e+00     6.02083e+00    -3.80410e+00
H       2.56447e+00     5.39103e+00    -5.13811e+00
O      -1.13728e+01     5.80005e+00     6.05230e+00
H      -1.04227e+01     5.99273e+00     5.78878e+00
H      -1.13301e+01     5.11723e+00     6.75754e+00
O       1.07075e+01     2.84990e+00     9.68937e+00
H       1.11162e+01     2.49337e+00     1.04705e+01
H       1.15046e+01     2.80508e+00     9.08533e+00
O       9.87244e+00     1.08447e+01    -2.78110e+00
H       1.05806e+01     1.01738e+01    -2.83236e+00
H       1.02384e+01     1.17322e+01    -2.46520e+00
O       2.81891e+00     2.01660e+00     4.92297e+00
H       2.16828e+00     2.29910e+00     4.21913e+00
H       3.50534e+00     2.66781e+00     4.87088e+00
O      -7.20116e+00    -7.20310e+00    -4.95016e+00
H      -7.09903e+00    -7.75779e+00    -5.78066e+00
H      -6.49632e+00    -6.53930e+00    -5.07638e+00
O       1.26276e+01     7.90076e+00     1.81355e+00
H       1.25045e+01     8.65835e+00     1.12127e+00
H       1.17181e+01     7.67472e+00     2.04381e+00
O      -4.02121e+00    -8.53245e+00     2.41578e+00
H      -4.33057e+00    -7.79928e+00     1.85269e+00
H      -4.63592e+00    -9.30582e+00     2.31926e+00
O       2.38977e+00     3.89015e+00    -1.28128e+00
H       3.05264e+00     3.83003e+00    -2.01419e+00
H       1.65922e+00     4.41197e+00    -1.56502e+00
O      -7.54316e+00     7.30208e+00     7.43320e+00
H      -8.26052e+00     7.86857e+00     7.80702e+00
H      -7.45755e+00     6.55181e+00     8.09912e+00
O      -6.80881e+00    -5.20780e-01    -7.73048e+00
H      -7.73156e+00    -1.33992e-01    -7.48217e+00
H      -6.77474e+00    -1.41154e+00    -7.26206e+00
O      -6.68434e+00     5.32438e+00    -1.15748e+01
H      -6.84789e+00     4.61475e+00    -1.09324e+01
H      -7.58260e+00     5.54605e+00    -1.19514e+01
O      -8.16595e+00    -1.94755e+00     1.02424e+01
H      -8.37618e+00    -2.87900e+00     9.91337e+00
H      -8.42732e+00    -2.02118e+00     1.12007e+01
O       1.05230e+00     1.30878e+01    -9.23203e+00
H       3.22025e-01     1.36013e+01    -9.49194e+00
H       1.58993e+00     1.34445e+01    -8.42924e+00
O       1.00357e+01     5.99397e+00    -8.83732e+00
H       9.05951e+00     5.85167e+00    -8.78592e+00
H       1.04214e+01     5.61761e+00    -8.02629e+00
O       1.18483e+01     1.69943e+00    -1.27011e+01
H       1.14596e+01     2.06471e+00    -1.18508e+01
H       1.15600e+01     7.07784e-01    -1.26274e+01
O       1.04332e+01    -4.32417e+00    -1.72133e+00
H       1.13979e+01    -4.52240e+00    -1.76230e+00
H       1.02566e+01    -3.55234e+00    -1.09685e+00
O       3.21981e+00     9.37588e+00    -8.79451e+00
H       3.36358e+00     9.59459e+00    -7.93526e+00
H       3.94811e+00     9.47514e+00    -9.40320e+00
O      -6.84043e+00     1.19110e+01    -8.61853e+00
H      -5.99388e+00     1.22115e+01    -8.26974e+00
H      -6.63990e+00     1.12021e+01    -9.29182e+00
O      -2.62643e+00    -4.65026e+00    -6.23127e+00
H      -1.76865e+00    -5.17208e+00    -6.08945e+00
H      -2.64025e+00    -4.32404e+00    -7.08588e+00
O       1.37052e+01    -3.95189e+00     7.20526e+00
H       1.46623e+01    -4.10973e+00     7.41891e+00
H       1.37381e+01    -3.43107e+00     6.39235e+00
O       4.63437e+00    -5.99244e+00     9.04562e+00
H       4.53719e+00    -6.88170e+00     9.53957e+00
H       4.25071e+00    -6.11482e+00     8.15367e+00
O      -4.02337e+00    -9.16132e+00    -4.01494e+00
H      -3.47587e+00    -9.63261e+00    -3.36922e+00
H      -3.54904e+00    -8.92292e+00    -4.82514e+00
O      -8.64918e+00    -9.62253e+00     1.10567e+00
H      -9.30521e+00    -1.02540e+01     1.28534e+00
H      -8.69848e+00    -9.67991e+00     1.23616e-01
O       1.12144e+01     1.17595e+01    -5.18821e+00
H       1.19417e+01     1.22983e+01    -4.87418e+00
H       1.07990e+01     1.24622e+01    -5.63851e+00
O       7.48610e+00    -7.98114e+00    -1.15740e+00
H       7.29289e+00    -8.34005e+00    -2.27984e-01
H       6.63797e+00    -7.73341e+00    -1.51210e+00
O       8.66668e+00     4.49659e+00     9.90777e+00
H       9.28478e+00     3.79919e+00     9.98734e+00
H       8.59888e+00     4.63686e+00     8.96986e+00
O      -8.39369e+00     9.84318e+00    -7.75909e+00
H      -9.18764e+00     1.00347e+01    -7.19732e+00
H      -7.70112e+00     1.05090e+01    -7.81408e+00
O      -5.79290e+00     3.25536e+00    -7.35512e+00
H      -5.07565e+00     3.84243e+00    -6.94148e+00
H      -5.34369e+00     2.35995e+00    -7.31835e+00
O       4.93168e+00    -1.25157e+01    -1.03998e+00
H       4.76116e+00    -1.33775e+01    -1.48074e+00
H       5.55955e+00    -1.21098e+01    -1.68419e+00
O       5.65451e+00    -8.07394e+00     5.34161e+00
H       5.16446e+00    -7.31612e+00     5.87544e+00
H       6.58735e+00    -8.15459e+00     5.63393e+00
O      -5.79060e+00     9.52981e+00    -4.54682e+00
H      -5.32014e+00     9.01717e+00    -5.27306e+00
H      -5.44911e+00     1.04259e+01    -4.63484e+00
O       2.77484e+00    -4.50958e-01    -2.43847e+00
H       3.63658e+00    -8.92551e-01    -2.39902e+00
H       2.79708e+00     8.80770e-02    -1.65527e+00
O      -9.22050e+00     6.70903e+00    -1.20738e+01
H      -1.00047e+01     6.10598e+00    -1.22111e+01
H      -9.52866e+00     7.61500e+00    -1.19381e+01
O       9.90783e+00     7.02741e+00     2.23390e+00
H       9.53900e+00     7.67116e+00     2.86870e+00
H       9.84678e+00     6.14361e+00     2.64294e+00
O       8.10013e+00     7.71985e+00     7.48920e+00
H       7.51606e+00     8.10214e+00     8.17889e+00
H       8.92097e+00     8.35323e+00     7.53900e+00
O       9.91780e+00    -3.75697e+00    -4.37988e+00
H       9.08003e+00    -3.90037e+00    -4.87451e+00
H       9.98501e+00    -4.08936e+00    -3.47961e+00
O      -1.45455e+00    -6.08808e-02     1.03380e+01
H      -9.69669e-01    -4.05563e-01     9.54579e+00
H      -1.00344e+00    -3.61836e-01     1.11194e+01
O       1.09761e+01    -7.93690e-01     1.23411e+01
H       1.01496e+01    -9.24627e-01     1.28373e+01
H       1.09158e+01    -1.25569e+00     1.14637e+01
O       1.30401e+01    -2.34772e+00     5.10719e+00
H       1.36978e+01    -2.16482e+00     4.39172e+00
H       1.21858e+01    -2.35371e+00     4.66321e+00
O      -6.07638e+00    -3.67594e-01     9.98846e+00
H      -5.17766e+00    -7.76096e-01     1.00160e+01
H      -6.76219e+00    -1.05550e+00     1.02157e+01
O      -5.13820e+00    -4.16733e+00     7.20106e+00
H      -4.91503e+00    -4.27179e+00     8.10980e+00
H      -6.15973e+00    -3.95205e+00     7.13424e+00
O      -9.27451e+00    -2.95434e+00    -5.48290e+00
H      -9.18511e+00    -3.94946e+00    -5.18997e+00
H      -9.72987e+00    -2.49655e+00    -4.69696e+00
O      -9.48247e+00    -5.85482e+00    -1.47035e+00
H      -9.10380e+00    -6.72645e+00    -1.74707e+00
H      -8.78362e+00    -5.42174e+00    -9.10297e-01
O      -1.01490e+01     4.57986e+00    -2.11194e+00
H      -1.09254e+01     4.71952e+00    -2.64481e+00
H      -9.78865e+00     3.71901e+00    -2.52340e+00
O       3.52554e+00     5.33464e+00     6.47876e-01
H       3.22050e+00     4.75284e+00    -9.75416e-02
H       4.40243e+00     5.01999e+00     8.90652e-01
O       1.26013e+01     9.57878e-01    -1.17258e+00
H       1.29343e+01     2.59828e-01    -5.80395e-01
H       1.20028e+01     1.51485e+00    -6.10736e-01
O       1.20460e+00    -2.27573e+00     2.31453e+00
H       8.59160e-01    -1.38544e+00     2.15135e+00
H       2.11322e+00    -1.95845e+00     2.20236e+00
O      -4.68420e+00     1.18774e+01    -4.97518e+00
H      -3.84747e+00     1.19522e+01    -4.56821e+00
H      -4.49538e+00     1.24390e+01    -5.81911e+00
O      -1.57985e+00     5.56530e+00    -3.14037e+00
H      -1.89881e+00     4.88925e+00    -3.75999e+00
H      -2.06780e+00     6.44700e+00    -3.33373e+00
O      -1.01385e+01     8.96804e+00     3.28296e+00
H      -1.03131e+01     9.23636e+00     4.20167e+00
H      -1.08940e+01     8.48753e+00     2.82912e+00
O      -5.91707e+00     5.55487e+00    -3.52622e+00
H      -5.48641e+00     6.33942e+00    -3.14495e+00
H      -6.84605e+00     5.82076e+00    -3.76602e+00
O      -1.08610e+01     1.20417e+01    -1.93132e+00
H      -9.90890e+00     1.18708e+01    -2.03267e+00
H      -1.10035e+01     1.22328e+01    -9.68630e-01
O       1.07252e+01    -1.05464e+01     9.12816e+00
H       1.05018e+01    -9.65474e+00     8.65611e+00
H       1.14435e+01    -1.09985e+01     8.63749e+00
O       2.57738e+00     9.57108e+00     9.22944e+00
H       3.45355e+00     9.95989e+00     9.40959e+00
H       2.18968e+00     1.02020e+01     8.58041e+00
O       5.91846e+00    -5.39193e+00     1.45480e+00
H       5.00304e+00    -5.58480e+00     1.32690e+00
H       6.20666e+00    -4.86309e+00     6.53296e-01
O       1.00866e+01    -2.22289e+00     1.03110e+01
H       9.83130e+00    -1.91734e+00     9.40732e+00
H       1.06083e+01    -2.98489e+00     1.00501e+01
O      -1.17473e+01    -2.59073e-01     6.73766e+00
H      -1.09345e+01    -2.48152e-01     7.28685e+00
H      -1.16595e+01    -1.04471e+00     6.16053e+00
O      -1.21802e+01     2.80858e+00    -4.81348e+00
H      -1.12858e+01     2.90800e+00    -4.46748e+00
H      -1.26607e+01     2.14249e+00    -4.21877e+00
O      -9.69762e+00     6.68784e+00     1.00725e+01
H      -9.17178e+00     6.68055e+00     1.09626e+01
H      -9.16402e+00     6.08443e+00     9.56855e+00
O       9.13040e+00    -9.00299e+00     1.21981e+01
H       8.51392e+00    -8.91655e+00     1.13950e+01
H       9.66806e+00    -9.69004e+00     1.18624e+01
O       1.06244e+01    -6.11611e+00     7.69372e+00
H       1.13971e+01    -6.48740e+00     7.14416e+00
H       1.11021e+01    -5.53374e+00     8.37835e+00
O       8.96257e+00    -2.64602e+00     5.97423e+00
H       8.73852e+00    -3.39506e+00     6.55458e+00
H       9.18281e+00    -2.00753e+00     6.68394e+00
O      -2.23638e+00     7.00057e+00     5.30062e+00
H      -2.57281e+00     7.77717e+00     4.81516e+00
H      -1.37703e+00     7.35913e+00     5.75574e+00
O      -9.68576e+00    -1.12811e+01     8.87490e+00
H      -8.86871e+00    -1.09564e+01     8.34768e+00
H      -9.97442e+00    -1.05034e+01     9.46072e+00
O      -6.16382e+00     1.04824e+00     7.48456e+00
H      -6.81830e+00     1.71765e+00     7.69313e+00
H      -6.04846e+00     7.50289e-01     8.37643e+00
O      -1.28760e+00     1.44174e+01    -9.75988e+00
H      -1.36082e+00     1.53341e+01    -9.41568e+00
H      -2.07332e+00     1.42968e+01    -1.03366e+01
O       3.09336e-01    -7.65371e+00     4.60622e+00
H      -4.71442e-01    -7.15421e+00     4.91437e+00
H       1.02656e+00    -6.96814e+00     4.51211e+00
O       9.79853e+00    -6.26737e+00    -1.19373e+01
H       9.41138e+00    -7.16173e+00    -1.20985e+01
H       1.07970e+01    -6.39745e+00    -1.21605e+01
O      -2.70673e+00     2.36759e+00     9.56572e+00
H      -3.50838e+00     2.43027e+00     1.02293e+01
H      -2.19248e+00     1.61119e+00     9.92984e+00
O       8.15577e+00    -1.21727e+01     6.11680e+00
H       8.31171e+00    -1.21794e+01     7.09121e+00
H       8.78069e+00    -1.27955e+01     5.77329e+00
O       3.71641e+00     7.46771e+00     8.05822e+00
H       4.30257e+00     7.85272e+00     7.41959e+00
H       3.21809e+00     8.31890e+00     8.35382e+00
O       5.54049e+00    -1.01274e+01    -5.05667e+00
H       5.37845e+00    -1.04473e+01    -5.96233e+00
H       4.87466e+00    -9.44186e+00    -4.80339e+00
O      -1.20392e-01    -7.48389e-01     8.13060e+00
H       3.74948e-01    -1.52389e+00     7.72493e+00
H       4.22839e-02     2.87050e-02     7.52507e+00
O      -4.53521e+00     9.92265e+00    -7.82602e+00
H      -4.99255e+00     1.05278e+01    -7.29663e+00
H      -4.98662e+00     9.98256e+00    -8.68656e+00
O       8.84327e-01     1.08503e+01     1.97939e+00
H       2.98022e-01     1.02223e+01     2.45255e+00
H       1.69484e+00     1.04286e+01     1.75655e+00
O      -1.78135e+00     4.24334e+00    -8.81356e+00
H      -1.19395e+00     4.99910e+00    -8.99120e+00
H      -1.90664e+00     3.83228e+00    -9.69136e+00
O       3.46772e+00    -6.23759e+00     2.15205e+00
H       2.91352e+00    -6.44730e+00     1.39152e+00
H       4.13314e+00    -6.89225e+00     2.20941e+00
O       4.16919e+00     3.74051e+00    -3.15577e+00
H       4.13378e+00     4.49782e+00    -3.72836e+00
H       3.88633e+00     2.97737e+00    -3.71233e+00
O       2.65946e+00     6.56428e+00    -8.52087e+00
H       2.81066e+00     7.41423e+00    -8.23112e+00
H       3.30346e+00     6.35002e+00    -9.24979e+00
O      -4.39234e+00    -4.13646e+00     9.74877e+00
H      -3.50562e+00    -4.46790e+00     9.91233e+00
H      -4.29054e+00    -3.19444e+00     9.92694e+00
O      -8.52303e+00     1.24434e-01    -4.45664e-01
H      -8.12251e+00     8.83403e-01    -4.25054e-02
H      -8.86074e+00     4.82563e-01    -1.29319e+00
O      -5.84253e+00    -6.79191e+00    -9.19415e+00
H      -6.31668e+00    -6.81448e+00    -1.00168e+01
H      -6.34214e+00    -7.29257e+00    -8.53383e+00
O      -1.10065e+00    -1.11703e+01     6.72217e+00
H      -4.27986e-01    -1.04925e+01     6.63907e+00
H      -1.97149e+00    -1.07141e+01     6.64122e+00
O       1.28780e+01    -9.00398e+00     1.07295e+00
H       1.27777e+01    -9.29678e+00     2.00216e+00
H       1.21043e+01    -8.45343e+00     9.62941e-01
O      -4.96949e+00    -7.31076e-01    -9.79718e+00
H      -4.81760e+00     1.32082e-01    -1.02809e+01
H      -5.66202e+00    -4.95984e-01    -9.11922e+00
O       6.65368e+00     1.56442e+00     2.36776e+00
H       7.59826e+00     1.82251e+00     2.22621e+00
H       6.32335e+00     2.25842e+00     2.98028e+00
O       8.16507e-01    -5.65464e+00    -7.85900e+00
H      -4.93667e-02    -6.05567e+00    -7.86240e+00
H       1.34150e+00    -6.51786e+00    -7.88318e+00
O      -4.12084e+00    -6.83349e+00    -2.77607e+00
H      -4.11014e+00    -7.66004e+00    -3.22859e+00
H      -4.75737e+00    -7.03486e+00    -2.04853e+00
O       1.06107e+01     6.93075e+00    -5.05768e+00
H       9.70691e+00     6.76431e+00    -4.78794e+00
H       1.11403e+01     6.53801e+00    -4.32821e+00
O       8.07112e+00     4.02123e+00    -2.26686e+00
H       7.14100e+00     4.13473e+00    -2.07239e+00
H       8.13889e+00     3.17259e+00    -2.72699e+00
O      -5.91851e+00     8.23354e+00    -1.38829e-01
H      -5.58582e+00     8.25633e+00    -1.07665e+00
H      -5.11447e+00     8.22794e+00     4.23750e-01
O       6.38338e+00    -2.11401e+00    -6.40428e+00
H       6.35009e+00    -2.43120e+00    -7.36148e+00
H       5.45501e+00    -2.14598e+00    -6.16697e+00
O       6.69122e+00    -1.13260e+00     2.80173e+00
H       6.57517e+00    -1.46462e-01     2.74038e+00
H       7.16651e+00    -1.31173e+00     1.94412e+00
O      -9.88116e+00     3.11271e-01    -2.71994e+00
H      -1.07117e+01     5.80854e-01    -2.27715e+00
H      -1.00415e+01    -5.81583e-01    -3.01495e+00
O       7.67572e+00     1.88302e-01    -5.37593e+00
H       7.29190e+00    -7.02234e-01    -5.50679e+00
H       6.98479e+00     8.47899e-01    -5.54729e+00
O      -8.65974e+00    -1.01185e+01    -1.61172e+00
H      -8.36526e+00    -1.10936e+01    -1.72917e+00
H      -9.61839e+00    -1.01974e+01    -1.66077e+00
O      -1.88144e+00    -5.35994e-01     2.95910e-01
H      -1.77551e+00    -6.29896e-01    -6.75460e-01
H      -2.83828e+00    -7.50190e-01     4.14867e-01
O       4.63422e+00    -1.02418e+01     6.07998e+00
H       5.04381e+00    -9.36432e+00     5.80375e+00
H       5.22254e+00    -1.06588e+01     6.73220e+00
O       8.05771e+00     9.48217e+00    -9.39579e-01
H       7.09659e+00     9.41948e+00    -1.11874e+00
H       8.48970e+00     1.00528e+01    -1.62443e+00
O      -5.56650e+00    -1.03213e+01    -1.30622e+01
H      -5.85001e+00    -1.10826e+01    -1.36635e+01
H      -4.70229e+00    -1.05809e+01    -1.26327e+01
O       1.31385e+00     5.30758e-01    -8.97241e+00
H       1.30146e+00     1.45760e+00    -9.30637e+00
H       6.50955e-01     1.10298e-01    -9.57178e+00
O      -2.08150e+00    -8.55060e+00    -5.87846e+00
H      -1.77215e+00    -7.65999e+00    -5.55400e+00
H      -1.51275e+00    -9.16760e+00    -5.40075e+00
O      -4.55984e+00     1.28604e+01    -7.61981e+00
H      -4.34539e+00     1.38298e+01    -7.59630e+00
H      -3.69948e+00     1.24815e+01    -7.81994e+00
O       9.24528e+00     2.16817e+00     2.07897e+00
H       9.94355e+00     2.21843e+00     1.37347e+00
H       9.35286e+00     3.01573e+00     2.53770e+00
O      -9.50926e+00    -5.17347e+00     1.33382e+01
H      -1.03702e+01    -4.96905e+00     1.38141e+01
H      -9.13247e+00    -4.29921e+00     1.31126e+01
O      -1.13424e+01    -4.74571e+00     2.21029e+00
H      -1.23200e+01    -4.59104e+00     2.09630e+00
H      -1.10604e+01    -5.47532e+00     1.60262e+00
O      -4.94329e+00     1.83394e+00     1.12118e+01
H      -5.43641e+00     1.06834e+00     1.08619e+01
H      -4.82322e+00     1.72483e+00     1.21974e+01
O       6.83336e+00     4.56351e+00     1.16843e+01
H       7.41889e+00     4.58803e+00     1.09033e+01
H       5.91751e+00     4.73842e+00     1.13295e+01
O       7.43771e+00    -4.13381e+00    -4.98643e-01
H       8.14569e+00    -4.83967e+00    -3.57563e-01
H       7.62068e+00    -3.29886e+00    -7.04862e-03
O       1.33212e+01     3.08446e+00    -8.78540e+00
H       1.37142e+01     3.94818e+00    -8.50047e+00
H       1.34614e+01     2.47542e+00    -8.03361e+00
O       9.91581e+00     7.36424e+00    -4.02325e-01
H       9.20030e+00     7.97916e+00    -7.06366e-01
H       9.58963e+00     7.15860e+00     5.35675e-01
O       6.11713e+00     1.41061e+01     8.38093e+00
H       6.95192e+00     1.36048e+01     8.53199e+00
H       5.47407e+00     1.37507e+01     8.97484e+00
O      -9.79207e+00    -7.31511e+00     8.96287e+00
H      -1.00412e+01    -8.10589e+00     9.44158e+00
H      -8.87744e+00    -7.37488e+00     8.55105e+00
O       1.05230e+01    -2.51364e+00     3.22068e-01
H       1.13714e+01    -1.99056e+00     5.43060e-01
H       1.05922e+01    -3.19170e+00     9.99281e-01
O       8.77654e-01     2.42521e+00     3.16962e+00
H       1.04714e+00     3.35584e+00     2.82648e+00
H      -2.47735e-03     2.54724e+00     3.58127e+00
O       1.00789e+01     9.47827e+00     7.71533e+00
H       1.02720e+01     1.00299e+01     8.51344e+00
H       1.08916e+01     8.90295e+00     7.59674e+00
O      -6.20203e+00    -1.07474e+01    -3.77007e+00
H      -5.56143e+00    -1.13962e+01    -4.15598e+00
H      -5.74134e+00    -9.89684e+00    -3.99297e+00
O      -9.77544e+00     9.41380e+00     8.00690e+00
H      -9.59566e+00     9.82796e+00     8.87630e+00
H      -1.05951e+01     9.00466e+00     8.14289e+00
O       2.57514e+00    -1.00099e+01     2.06932e+00
H       2.38820e+00    -1.07493e+01     2.73034e+00
H       1.77617e+00    -9.37639e+00     2.12639e+00
O      -5.15871e+00    -1.05263e+01    -1.05164e+00
H      -5.55719e+00    -1.07723e+01    -1.88680e+00
H      -5.53242e+00    -1.11916e+01    -3.88410e-01
O      -6.97453e-01     1.20228e+01    -4.90141e-01
H      -3.91902e-01     1.29632e+01    -7.03909e-01
H      -1.14380e-01     1.17606e+01     2.67743e-01
O       1.01655e+01    -8.75639e-01     7.86242e+00
H       9.79944e+00    -6.16551e-02     7.44615e+00
H       1.10848e+01    -7.77294e-01     7.62518e+00
O       2.04156e+00     4.41575e+00    -6.70726e+00
H       2.30779e+00     5.15838e+00    -7.30026e+00
H       1.15661e+00     4.09896e+00    -7.08237e+00
O      -1.18112e+01     1.08007e+00    -6.79391e+00
H      -1.26343e+01     7.10651e-01    -7.03153e+00
H      -1.20749e+01     1.46329e+00    -5.96261e+00
O      -8.63881e+00     1.13287e+01     1.02796e+01
H      -9.10077e+00     1.21551e+01     9.89677e+00
H      -8.98363e+00     1.11842e+01     1.11790e+01
O      -5.71737e+00     1.22192e+01     7.36615e-01
H      -6.29473e+00     1.14732e+01     5.27021e-01
H      -4.84050e+00     1.18313e+01     8.19868e-01
O       1.23163e+01     7.90781e+00    -1.17390e+01
H       1.18588e+01     7.12298e+00    -1.17158e+01
H       1.18648e+01     8.78948e+00    -1.12963e+01
O      -1.41342e-01     6.67709e-01    -6.64687e+00
H       6.20885e-01     3.13600e-01    -6.11876e+00
H       8.83099e-02     4.45932e-01    -7.54386e+00
O       1.23380e+01    -7.23144e+00     1.23245e+01
H       1.22454e+01    -8.18030e+00     1.20524e+01
H       1.28872e+01    -6.66744e+00     1.16944e+01
O       4.97471e+00     4.71419e+00     6.87039e+00
H       5.28572e+00     3.95083e+00     7.37170e+00
H       5.04697e+00     4.42800e+00     5.98586e+00
O      -6.08399e+00    -1.25306e+00    -1.02458e+00
H      -7.05151e+00    -1.11951e+00    -9.28777e-01
H      -5.94679e+00    -2.16999e+00    -1.34883e+00
O      -1.94164e+00    -5.22929e+00    -2.75903e+00
H      -2.25990e+00    -4.44372e+00    -3.27690e+00
H      -2.69845e+00    -5.90049e+00    -2.78838e+00
O       1.05276e+01     4.91139e-01     3.78040e+00
H       1.00471e+01     9.68103e-01     3.05350e+00
H       1.14592e+01     7.40030e-01     3.51409e+00
O       1.33582e+01     3.01221e+00     2.05675e+00
H       1.30375e+01     3.54493e+00     2.84628e+00
H       1.40897e+01     3.54212e+00     1.59824e+00
O      -4.33401e+00     1.09479e+01    -1.23497e+01
H      -3.68397e+00     1.03457e+01    -1.28092e+01
H      -5.00816e+00     1.10604e+01    -1.30183e+01
O       7.26181e+00    -8.04859e+00     1.56872e+00
H       6.99840e+00    -7.13414e+00     1.41293e+00
H       6.45729e+00    -8.36041e+00     2.03004e+00
O       6.30911e+00     1.08942e+01    -6.75619e+00
H       6.67427e+00     1.04749e+01    -7.49485e+00
H       6.94149e+00     1.09274e+01    -5.97039e+00
O      -2.99070e+00    -4.25278e+00    -8.90589e+00
H      -2.93927e+00    -3.24381e+00    -8.94842e+00
H      -3.97860e+00    -4.34231e+00    -8.64864e+00
O       6.54920e+00    -4.64507e-01    -1.15676e+01
H       6.15338e+00     4.11849e-01    -1.14669e+01
H       5.87046e+00    -1.11656e+00    -1.12517e+01
O       3.75653e+00    -6.32262e-01     5.33476e+00
H       3.52392e+00     2.58939e-01     4.98426e+00
H       2.96412e+00    -9.84493e-01     5.80016e+00
O       2.17610e+00    -4.48076e+00    -3.46778e+00
H       2.52115e+00    -4.41063e+00    -4.40599e+00
H       1.48553e+00    -3.84858e+00    -3.22079e+00
O       7.11834e+00     7.51355e+00     4.93698e+00
H       7.69261e+00     8.10801e+00     4.35866e+00
H       7.56683e+00     7.53102e+00     5.79255e+00
O      -9.56068e+00    -1.02731e+01     4.88887e+00
H      -9.52389e+00    -9.46864e+00     4.29931e+00
H      -1.03486e+01    -1.01485e+01     5.47246e+00
O       6.54595e+00     8.54467e+00    -4.04096e+00
H       5.98612e+00     8.28088e+00    -4.79626e+00
H       6.98359e+00     9.35906e+00    -4.28807e+00
O      -9.57293e+00    -7.77503e-01    -1.00951e+01
H      -9.11904e+00    -9.10989e-01    -9.26091e+00
H      -1.05185e+01    -1.11406e+00    -1.00393e+01
O      -2.01598e+00    -3.01227e+00     1.19329e+01
H      -1.36057e+00    -2.46600e+00     1.23907e+01
H      -1.73459e+00    -3.57808e+00     1.12003e+01
O      -8.32828e+00    -2.56365e+00    -1.17712e+01
H      -7.44009e+00    -2.67817e+00    -1.12955e+01
H      -8.81830e+00    -1.90016e+00    -1.12625e+01
O       6.76462e-01     2.81222e-01     1.22805e+01
H       5.14680e-01    -6.25648e-01     1.27170e+01
H       1.53747e+00     3.59469e-01     1.17256e+01
O       8.65829e+00     8.95119e+00     3.32057e+00
H       8.38114e+00     9.48038e+00     2.51501e+00
H       9.18214e+00     9.60955e+00     3.85839e+00
O       2.83291e+00    -4.79135e+00    -6.11766e+00
H       1.97912e+00    -4.99737e+00    -6.53082e+00
H       3.56693e+00    -5.18597e+00    -6.62235e+00
O      -5.39043e+00    -1.19473e+01     3.97745e+00
H      -5.69551e+00    -1.14161e+01     3.23843e+00
H      -4.61666e+00    -1.23960e+01     3.63637e+00
O       5.70293e+00     3.21093e-01     1.04600e+01
H       6.01699e+00     1.26749e-01     1.13829e+01
H       5.98993e+00    -4.83092e-01     9.93970e+00
O       8.13474e+00    -9.02631e+00    -5.16793e+00
H       7.31853e+00    -9.51868e+00    -5.45614e+00
H       7.95150e+00    -8.05087e+00    -5.27335e+00
O      -5.63341e+00     4.50537e+00     1.06720e+01
H      -5.98114e+00     4.91090e+00     1.14966e+01
H      -5.50850e+00     3.59737e+00     1.09554e+01
O      -1.89630e+00    -5.30920e+00     1.02107e+01
H      -2.23032e+00    -6.08424e+00     1.07107e+01
H      -9.54313e-01    -5.61607e+00     1.00275e+01
O       5.20677e+00    -5.57389e+00    -7.46540e+00
H       4.81630e+00    -6.03773e+00    -8.25191e+00
H       5.59571e+00    -4.74318e+00    -7.80850e+00
O      -7.22294e+00     2.41471e+00    -2.19747e-01
H      -6.48426e+00     2.07589e+00     3.35122e-01
H      -7.73757e+00     3.10489e+00     2.82152e-01
O      -6.86020e-01    -7.34709e+00     8.18871e+00
H      -1.49056e+00    -7.88979e+00     8.44245e+00
H      -1.04472e+00    -6.82739e+00     7.45725e+00
O       7.43450e+00     4.84196e+00     4.85167e+00
H       7.07398e+00     5.80263e+00     4.79036e+00
H       7.85505e+00     4.82081e+00     5.75847e+00
O      -2.80309e+00    -1.13834e+00     7.10548e+00
H      -1.93660e+00    -9.70133e-01     7.44989e+00
H      -3.22113e+00    -1.95704e-01     7.13065e+00
O      -7.34047e+00     7.18945e+00    -7.57748e+00
H      -7.77075e+00     8.05573e+00    -7.39210e+00
H      -7.22843e+00     7.29159e+00    -8.58405e+00
O       9.21341e+00    -2.95232e+00    -8.72847e+00
H       9.11250e+00    -2.15520e+00    -9.39282e+00
H       9.54297e+00    -3.79097e+00    -9.19056e+00
O      -1.07947e+00    -7.56494e+00    -8.39285e+00
H      -1.97304e+00    -7.35911e+00    -8.79209e+00
H      -1.33812e+00    -7.68516e+00    -7.46474e+00
O       8.06910e+00    -1.54740e+00     4.73146e-01
H       9.01318e+00    -1.72640e+00     7.06821e-01
H       8.02741e+00    -9.63719e-01    -3.14984e-01
O       7.86514e+00     9.91768e+00    -8.75510e+00
H       8.09860e+00     1.08674e+01    -8.83099e+00
H       8.75682e+00     9.44544e+00    -8.51826e+00
O       5.86849e-01     9.03777e+00     1.09476e+01
H       1.42915e+00     9.06871e+00     1.05086e+01
H      -3.12915e-02     9.06384e+00     1.02469e+01
O      -4.79089e-01     2.54286e+00    -1.23284e+01
H       5.04554e-02     3.15141e+00    -1.28991e+01
H      -5.62487e-02     1.61219e+00    -1.24435e+01
O       3.48587e+00     9.82797e+00     1.97267e+00
H       4.18721e+00     1.05164e+01     1.94744e+00
H       3.40417e+00     9.73323e+00     2.96524e+00
O      -2.27735e+00     8.44084e+00    -3.42616e+00
H      -2.51213e+00     8.76720e+00    -4.30027e+00
H      -1.47928e+00     8.97036e+00    -3.22322e+00
O      -1.27666e+01    -9.49978e+00     3.71935e+00
H      -1.23286e+01    -9.49575e+00     4.61823e+00
H      -1.36547e+01    -8.93802e+00     3.77667e+00
O      -1.05215e+01     1.27887e+01     8.95584e-01
H      -1.12803e+01     1.26965e+01     1.51403e+00
H      -9.95714e+00     1.20161e+01     1.11964e+00
O       8.05112e+00     6.01078e+00    -4.15249e+00
H       7.72596e+00     6.90219e+00    -3.86063e+00
H       8.29623e+00     5.51063e+00    -3.36421e+00
O      -5.30368e+00    -5.31368e+00    -4.84241e+00
H      -4.70963e+00    -4.99918e+00    -5.58467e+00
H      -4.73537e+00    -5.81231e+00    -4.23391e+00
O       1.15229e+01     1.08648e+01     9.85587e+00
H       1.19929e+01     1.14801e+01     9.27833e+00
H       1.21292e+01     1.02438e+01     1.02648e+01
O       6.73812e+00     2.55973e+00    -8.78162e+00
H       7.53696e+00     1.96942e+00    -8.90066e+00
H       6.18822e+00     2.44266e+00    -9.58981e+00
O       1.29546e+00    -6.55428e+00     4.50145e-01
H       7.13671e-01    -6.97934e+00     1.09205e+00
H       1.06950e+00    -5.56754e+00     3.24589e-01
O       6.33093e+00    -3.62196e+00    -8.91360e+00
H       5.83419e+00    -3.05719e+00    -9.54872e+00
H       7.36512e+00    -3.54333e+00    -9.00155e+00
O      -9.23874e+00    -8.00855e+00     3.54820e+00
H      -8.43164e+00    -7.42548e+00     3.63205e+00
H      -9.32629e+00    -7.99005e+00     2.56088e+00
O      -5.99341e+00     2.88034e+00    -2.44618e+00
H      -6.65810e+00     2.85401e+00    -1.75567e+00
H      -5.95120e+00     3.72572e+00    -2.93317e+00
O      -4.83628e+00     8.08376e-01    -6.37822e+00
H      -5.44360e+00     3.03364e-01    -6.93016e+00
H      -3.96917e+00     3.38501e-01    -6.42617e+00
O       1.11234e+01     2.63516e+00    -1.03158e+01
H       1.18485e+01     2.81367e+00    -9.70175e+00
H       1.08525e+01     3.52695e+00    -1.06486e+01
O      -3.58844e+00     8.98617e+00     4.34377e+00
H      -4.47449e+00     8.94531e+00     4.82201e+00
H      -3.46956e+00     9.90052e+00     4.07534e+00
O      -8.94126e+00    -4.14257e+00     4.80553e+00
H      -9.73254e+00    -4.75798e+00     4.84447e+00
H      -9.18407e+00    -3.53244e+00     4.04073e+00
O      -1.11981e+01    -1.12337e+01    -4.46364e+00
H      -1.03928e+01    -1.15004e+01    -4.90911e+00
H      -1.11213e+01    -1.15785e+01    -3.48519e+00
O       8.93319e+00    -1.22679e+01    -8.60246e+00
H       9.07047e+00    -1.16701e+01    -7.83665e+00
H       8.65814e+00    -1.16465e+01    -9.30372e+00
O       3.99147e+00    -1.57813e+00     2.67535e+00
H       3.86322e+00    -1.23712e+00     3.54905e+00
H       4.96866e+00    -1.50662e+00     2.57313e+00
O      -5.41494e-01    -8.31123e+00    -1.25250e+01
H      -1.44487e+00    -7.90001e+00    -1.25120e+01
H      -5.62760e-02    -7.71390e+00    -1.31110e+01
O       8.17257e-01     1.03556e+01    -9.67330e+00
H       8.49298e-01     1.12862e+01    -9.33995e+00
H       1.72999e+00     1.00314e+01    -9.43750e+00
O      -2.17544e-01     4.32165e+00     7.16367e+00
H       1.09437e-02     3.40830e+00     7.48190e+00
H       6.43752e-01     4.74008e+00     7.16788e+00
O      -2.33088e+00    -7.44670e-01    -6.45445e+00
H      -1.59771e+00    -1.09852e-01    -6.36664e+00
H      -2.36553e+00    -1.19643e+00    -5.60215e+00
O       2.80080e+00     1.75233e+00     8.67577e+00
H       2.82796e+00     1.13860e+00     9.46782e+00
H       2.90203e+00     2.59424e+00     9.22204e+00
O       1.38423e+01     7.51656e+00    -9.61018e+00
H       1.32080e+01     7.51053e+00    -1.04020e+01
H       1.45354e+01     8.14551e+00    -9.83125e+00
O       8.16308e+00    -4.37000e+00     1.14446e+01
H       8.87380e+00    -3.79418e+00     1.11264e+01
H       8.72678e+00    -5.01244e+00     1.19414e+01
O       6.27998e+00     5.14807e+00    -5.85145e+00
H       6.84172e+00     5.47706e+00    -5.14336e+00
H       6.75653e+00     5.23508e+00    -6.66601e+00
O       1.03134e+00    -2.45379e+00    -2.52392e+00
H       1.81055e+00    -1.84120e+00    -2.44397e+00
H       2.88873e-01    -1.87630e+00    -2.62992e+00
O       3.31303e+00     1.45058e+01    -5.10836e-01
H       3.58986e+00     1.36261e+01    -7.69032e-01
H       3.20369e+00     1.46358e+01     4.41651e-01
O      -7.87150e+00     3.03651e+00     7.59227e+00
H      -8.73831e+00     2.66904e+00     8.02572e+00
H      -8.12355e+00     3.00637e+00     6.62641e+00
O       4.78396e+00    -7.99672e+00     1.07808e+01
H       4.48973e+00    -8.87864e+00     1.03968e+01
H       5.76195e+00    -8.07235e+00     1.06506e+01
O       1.28042e+01    -1.12131e+00     6.39084e-01
H       1.28849e+01    -6.36114e-01     1.46228e+00
H       1.36198e+01    -1.68927e+00     5.59970e-01
O      -2.35011e+00    -1.23479e+01    -3.53162e+00
H      -1.72917e+00    -1.31001e+01    -3.36459e+00
H      -2.48185e+00    -1.17912e+01    -2.74895e+00
O       2.29621e+00    -2.90589e-02    -5.21686e+00
H       2.73867e+00     8.48101e-01    -5.58061e+00
H       2.39737e+00    -3.51019e-02    -4.28460e+00
O      -2.26589e+00     1.15605e+01     8.38203e+00
H      -1.82359e+00     1.20058e+01     7.62000e+00
H      -1.83455e+00     1.18767e+01     9.15649e+00
O       1.21380e+01    -1.18143e+01     2.86629e+00
H       1.19589e+01    -1.08736e+01     3.18471e+00
H       1.14366e+01    -1.21281e+01     2.22971e+00
O      -9.21264e+00     4.29801e+00     5.63777e-01
H      -8.59355e+00     5.02071e+00     7.75186e-01
H      -9.61412e+00     4.57685e+00    -3.01004e-01
O      -8.26083e+00    -1.25376e+01     4.11140e+00
H      -7.28632e+00    -1.24573e+01     4.18738e+00
H      -8.62206e+00    -1.16668e+01     4.27678e+00
O      -6.43714e-01     3.42729e+00    -6.66729e+00
H      -2.74102e-01     2.49230e+00    -6.66564e+00
H      -1.05900e+00     3.67357e+00    -7.59553e+00
O       5.75119e+00    -9.78038e+00    -9.69513e+00
H       5.04897e+00    -1.03116e+01    -1.00814e+01
H       6.64137e+00    -1.01416e+01    -9.93605e+00
O      -4.15968e-01     8.83369e+00     3.56617e+00
H      -9.53455e-01     8.55457e+00     2.74498e+00
H       2.39377e-01     8.14323e+00     3.72006e+00
O       9.82792e+00     1.08998e+01     1.21423e+01
H       1.04352e+01     1.06919e+01     1.28981e+01
H       1.03369e+01     1.13024e+01     1.13535e+01
O       9.48902e+00    -8.41931e+00     8.27245e+00
H       9.90204e+00    -7.46479e+00     8.05749e+00
H       9.02299e+00    -8.67604e+00     7.40909e+00
O       1.91451e+00    -1.20047e+01     3.74606e+00
H       1.66567e+00    -1.25342e+01     2.96181e+00
H       2.87837e+00    -1.23118e+01     3.92973e+00
O       3.67433e+00    -5.38481e+00    -1.47392e+00
H       3.82629e+00    -4.64304e+00    -8.97721e-01
H       3.09626e+00    -5.08265e+00    -2.23546e+00
O      -1.03134e+01    -1.37043e+01    -1.23506e+01
H      -1.08028e+01    -1.28884e+01    -1.20281e+01
H      -1.09532e+01    -1.42848e+01    -1.28079e+01
O      -1.94609e+00     4.79508e+00     9.08592e+00
H      -1.37366e+00     4.64420e+00     8.30247e+00
H      -2.24280e+00     3.85008e+00     9.29362e+00
O      -4.26160e+00    -9.09015e+00    -7.60516e+00
H      -3.72647e+00    -8.85461e+00    -8.36503e+00
H      -3.62820e+00    -8.93047e+00    -6.94931e+00
O      -5.59850e+00     3.06996e-01    -3.74097e+00
H      -5.64351e+00     4.27911e-01    -4.70438e+00
H      -5.93953e+00     1.13898e+00    -3.33696e+00
O      -3.71914e+00     6.34083e+00     7.33039e+00
H      -3.08642e+00     6.67257e+00     6.62969e+00
H      -3.27436e+00     5.68196e+00     7.82761e+00
O      -9.10907e+00     9.05308e-01    -7.51342e+00
H      -8.75475e+00     1.75188e+00    -7.19863e+00
H      -1.00155e+01     7.63712e-01    -7.15890e+00
O       6.90203e+00     5.77707e+00    -1.07084e+01
H       7.04311e+00     5.31987e+00    -1.16062e+01
H       6.98533e+00     6.70521e+00    -1.09201e+01
O       8.25200e-01     1.82151e+00     7.07910e+00
H       1.57756e+00     1.70632e+00     7.76938e+00
H       1.14199e+00     1.82500e+00     6.15323e+00
O      -9.04515e+00     1.08673e+01     1.81009e+00
H      -9.42370e+00     1.01026e+01     2.23057e+00
H      -8.68551e+00     1.13626e+01     2.57593e+00
O       3.27124e+00     1.43482e+01    -1.05309e+01
H       2.75752e+00     1.37095e+01    -9.98139e+00
H       2.61893e+00     1.50470e+01    -1.06987e+01
O       6.03466e-01     1.03829e+01     5.80050e+00
H       2.96104e-02     1.03702e+01     4.98499e+00
H       1.52435e+00     1.01978e+01     5.49041e+00
O       5.59408e+00     1.49963e+00    -2.73393e-03
H       4.61736e+00     1.32139e+00    -1.47541e-01
H       5.87305e+00     1.49591e+00     9.36729e-01
O       8.23977e+00    -9.20205e+00     6.01167e+00
H       8.20730e+00    -1.01950e+01     6.02343e+00
H       8.82354e+00    -9.00739e+00     5.22264e+00
O       7.92174e+00     5.25323e+00     7.44318e+00
H       6.99405e+00     4.97925e+00     7.32435e+00
H       7.89803e+00     6.24063e+00     7.52453e+00
O       6.57853e+00    -1.16068e+01    -3.17590e+00
H       6.08882e+00    -1.10724e+01    -3.87179e+00
H       7.38091e+00    -1.10462e+01    -3.05099e+00
O       2.38723e+00    -1.05712e+01     7.65984e+00
H       3.11196e+00    -1.03828e+01     6.97362e+00
H       1.58582e+00    -1.00069e+01     7.51715e+00
O       3.02204e-01    -8.44072e+00     2.09964e+00
H       3.64976e-01    -8.33585e+00     3.07696e+00
H      -3.27687e-01    -9.16874e+00     1.90313e+00
O       7.31814e+00    -7.58121e-02    -1.44858e+00
H       6.65104e+00     3.46269e-01    -9.08716e-01
H       7.81899e+00     6.24831e-01    -1.92633e+00
O      -9.73866e+00    -2.34961e+00    -2.35788e-01
H      -9.29031e+00    -1.47923e+00    -2.20374e-01
H      -8.90846e+00    -2.93993e+00    -2.25058e-01
O      -4.87722e+00     1.08682e+01     8.26511e+00
H      -3.90277e+00     1.10674e+01     8.38211e+00
H      -5.00936e+00     9.90959e+00     8.33708e+00
O       1.11842e+01    -1.47409e+00    -4.77299e+00
H       1.13192e+01    -1.54878e+00    -5.73700e+00
H       1.05094e+01    -2.16391e+00    -4.58300e+00
O      -5.02502e+00     1.89023e+00     1.23319e+00
H      -4.36562e+00     1.91603e+00     4.57033e-01
H      -4.80275e+00     2.69194e+00     1.77468e+00
O       9.17270e+00     1.42518e+00    -9.11367e+00
H       9.94619e+00     1.85048e+00    -9.60783e+00
H       9.56245e+00     1.29376e+00    -8.20086e+00
O      -1.23207e+00     3.93643e+00    -9.81211e-01
H      -1.28047e+00     4.49429e+00    -1.78342e+00
H      -2.00220e+00     3.28505e+00    -1.09987e+00
O      -8.00967e+00    -7.90839e+00    -2.46589e+00
H      -7.78917e+00    -7.82673e+00    -3.41653e+00
H      -8.24491e+00    -8.86912e+00    -2.24191e+00
O      -5.21076e+00     8.14980e+00     8.70310e+00
H      -4.75524e+00     7.41211e+00     8.28506e+00
H      -6.08889e+00     8.06020e+00     8.29024e+00
O      -9.60873e-01     5.54233e+00     1.15692e+00
H      -1.01647e+00     4.89822e+00     3.57989e-01
H      -1.53013e+00     5.06914e+00     1.87448e+00
O       1.13425e+01     2.63594e+00     3.41368e-01
H       1.20519e+01     2.99387e+00     8.70076e-01
H       1.08896e+01     3.42321e+00    -6.93157e-02
O       1.68529e+00     1.36949e+01    -4.77782e+00
H       6.85648e-01     1.37347e+01    -4.73774e+00
H       2.10545e+00     1.43574e+01    -4.23687e+00
O      -5.75917e+00    -3.93430e+00    -1.72834e+00
H      -4.94826e+00    -4.01337e+00    -1.17857e+00
H      -5.63910e+00    -3.62198e+00    -2.70539e+00
O      -3.88148e-01     1.22639e+01     1.03577e+01
H      -4.80902e-02     1.17534e+01     1.11395e+01
H       3.73607e-01     1.21049e+01     9.72811e+00
O       5.19775e+00     1.35731e+01    -7.43150e+00
H       5.37344e+00     1.40939e+01    -8.25402e+00
H       5.62453e+00     1.26882e+01    -7.38747e+00
O       4.52554e+00    -7.30638e+00    -9.40802e+00
H       4.19719e+00    -7.06465e+00    -1.02921e+01
H       5.19831e+00    -8.00937e+00    -9.42578e+00
O      -8.67391e+00    -1.06102e+01    -7.72152e+00
H      -8.12515e+00    -1.12982e+01    -8.06317e+00
H      -8.91105e+00    -1.09016e+01    -6.81326e+00
O      -9.72192e+00    -9.79123e+00    -1.00992e+01
H      -1.02993e+01    -9.00413e+00    -1.02322e+01
H      -9.58352e+00    -9.79240e+00    -9.11885e+00
O       9.52198e+00     3.75458e+00    -4.99396e+00
H       8.86943e+00     4.48019e+00    -4.96488e+00
H       9.19161e+00     3.12670e+00    -4.35345e+00
O       5.98154e+00    -1.01006e+00     6.32237e+00
H       5.03501e+00    -7.97634e-01     6.04156e+00
H       6.22606e+00    -1.78680e+00     5.88622e+00
O      -6.93354e+00     3.16571e+00    -9.89529e+00
H      -7.83193e+00     2.73036e+00    -9.94758e+00
H      -6.57879e+00     3.25487e+00    -8.99950e+00
O       4.71579e+00    -8.55291e+00     2.69509e+00
H       3.92834e+00    -9.16604e+00     2.59670e+00
H       5.04475e+00    -8.61107e+00     3.60646e+00
O       1.45184e+01     8.58270e+00    -4.46429e+00
H       1.42231e+01     8.56550e+00    -5.39752e+00
H       1.48578e+01     7.64604e+00    -4.29356e+00
O      -3.66287e+00    -1.57246e+00     9.71717e+00
H      -2.99914e+00    -9.95038e-01     1.01064e+01
H      -3.39300e+00    -1.61833e+00     8.74574e+00
O      -3.69316e+00     2.09457e+00    -1.01713e+00
H      -4.46103e+00     2.49688e+00    -1.57204e+00
H      -3.33377e+00     1.45353e+00    -1.67597e+00
O      -1.50565e+00    -1.02123e+01    -1.38433e+01
H      -1.03244e+00    -9.75601e+00    -1.31223e+01
H      -8.78831e-01    -1.08917e+01    -1.41765e+01
O       5.32102e+00     9.32931e+00    -1.65512e+00
H       4.68038e+00     8.77732e+00    -1.19301e+00
H       5.46507e+00     8.97417e+00    -2.56535e+00
O       1.35632e+01    -2.15271e+00    -3.53560e+00
H       1.33656e+01    -3.00145e+00    -3.07320e+00
H       1.26779e+01    -1.87957e+00    -3.91246e+00
O      -1.30497e+00     8.14972e+00     8.84094e-01
H      -1.19976e+00     7.17795e+00     7.67477e-01
H      -5.83952e-01     8.49656e+00     2.90068e-01
O      -2.62109e+00     9.83988e+00    -5.54804e+00
H      -1.68220e+00     9.84169e+00    -5.87928e+00
H      -3.11080e+00     9.75752e+00    -6.38882e+00
O       2.93564e+00    -4.22732e+00    -1.19291e+01
H       2.01871e+00    -4.14368e+00    -1.14347e+01
H       3.21667e+00    -5.18081e+00    -1.17632e+01
O       4.54274e+00     9.28135e+00    -1.09158e+01
H       4.76837e+00     1.01641e+01    -1.13781e+01
H       5.47318e+00     8.92305e+00    -1.09815e+01
O      -3.62433e+00     8.41678e+00     1.09598e+01
H      -3.45231e+00     7.55228e+00     1.12692e+01
H      -4.40181e+00     8.33029e+00     1.03277e+01
O      -3.67235e+00     1.56789e+00     6.88011e+00
H      -3.36328e+00     1.98947e+00     7.71005e+00
H      -4.63271e+00     1.47316e+00     7.06018e+00
O      -1.13523e+01     8.95004e+00     1.07965e+01
H      -1.18627e+01     8.29329e+00     1.13569e+01
H      -1.07201e+01     8.31625e+00     1.03772e+01
O       1.00154e+01    -6.90863e+00    -7.32030e+00
H       1.05088e+01    -6.29806e+00    -6.74301e+00
H       9.08396e+00    -6.98169e+00    -6.96310e+00
O      -6.50333e+00    -5.79218e+00     1.08508e+01
H      -5.88997e+00    -5.04440e+00     1.07450e+01
H      -6.46935e+00    -6.11341e+00     1.17751e+01
O      -8.37591e+00     6.17551e+00    -3.81905e+00
H      -9.04519e+00     5.79783e+00    -3.12392e+00
H      -8.55551e+00     5.65688e+00    -4.66233e+00
O       1.24647e+01     7.90615e+00     7.79485e+00
H       1.25287e+01     7.33157e+00     8.58423e+00
H       1.27614e+01     7.29639e+00     7.09263e+00
O       1.17308e+01     9.56176e+00    -2.38575e-01
H       1.21403e+01     9.57915e+00    -1.14065e+00
H       1.09953e+01     8.88206e+00    -2.57911e-01
O       9.62766e+00     1.46284e+00     6.15326e+00
H       8.65253e+00     1.66070e+00     6.18192e+00
H       9.73320e+00     9.71489e-01     5.27605e+00
O      -9.49661e+00     2.06521e+00    -1.03771e+01
H      -9.60047e+00     1.08857e+00    -1.02091e+01
H      -1.02468e+01     2.42553e+00    -9.79736e+00
O      -4.94538e+00     7.55931e+00    -6.26688e+00
H      -5.77908e+00     7.26062e+00    -6.69634e+00
H      -4.57606e+00     8.07061e+00    -7.02755e+00
O       5.91427e+00     1.12636e+01     6.76514e+00
H       5.42040e+00     1.17646e+01     6.02004e+00
H       6.80276e+00     1.15871e+01     6.60886e+00
O       5.75931e+00     2.17870e+00     1.32501e+01
H       4.80991e+00     2.55159e+00     1.32561e+01
H       6.28827e+00     2.76662e+00     1.27000e+01
O      -9.00656e+00     9.25068e+00    -1.03504e+01
H      -8.97994e+00     9.76980e+00    -9.52376e+00
H      -9.44288e+00     9.94514e+00    -1.09129e+01
O       3.40625e+00    -6.85699e+00    -1.16651e+01
H       3.89209e+00    -7.34315e+00    -1.24132e+01
H       2.60537e+00    -7.48232e+00    -1.15030e+01
O      -3.43410e+00    -9.97586e+00     6.67219e+00
H      -4.19337e+00    -1.05483e+01     6.71407e+00
H      -3.34490e+00    -9.60980e+00     7.58344e+00
O       5.24585e+00     1.13061e+01     1.19565e+01
H       5.41971e+00     1.09891e+01     1.10248e+01
H       4.52161e+00     1.19674e+01     1.19001e+01
O       8.48268e+00     1.55811e+00    -3.22970e+00
H       9.42939e+00     1.22691e+00    -3.24717e+00
H       8.08397e+00     1.09948e+00    -4.00274e+00
O      -1.17520e+01    -6.80858e+00    -3.98898e+00
H      -1.08517e+01    -6.69463e+00    -4.38684e+00
H      -1.23193e+01    -6.24488e+00    -4.58289e+00
O      -4.05388e+00     7.77131e+00     1.73155e+00
H      -4.12257e+00     7.87440e+00     2.67892e+00
H      -3.08845e+00     7.72808e+00     1.48190e+00
O      -2.61654e+00    -1.59173e+00    -9.10621e+00
H      -2.45235e+00    -1.34978e+00    -8.16464e+00
H      -3.47517e+00    -1.13355e+00    -9.30026e+00
O       1.20538e+01     2.23876e+00     6.18429e+00
H       1.10652e+01     2.08245e+00     6.21458e+00
H       1.24291e+01     1.29607e+00     6.31169e+00
O       3.74632e+00    -2.13647e+00    -6.16112e+00
H       3.05149e+00    -1.49198e+00    -5.77686e+00
H       3.23747e+00    -3.00923e+00    -6.05404e+00
O       1.24957e+01     9.79051e+00    -2.71492e+00
H       1.30837e+01     9.36601e+00    -3.41420e+00
H       1.30276e+01     1.06001e+01    -2.51541e+00
O      -1.08012e+01    -5.97192e+00     4.58409e+00
H      -1.10782e+01    -5.69640e+00     3.69159e+00
H      -1.02864e+01    -6.76409e+00     4.31928e+00
O      -9.43199e+00     2.63883e+00    -3.74718e+00
H      -9.39137e+00     1.70112e+00    -3.46207e+00
H      -8.83629e+00     2.76887e+00    -4.52535e+00
O      -2.38038e+00     4.75302e+00     3.44323e+00
H      -2.29228e+00     5.52754e+00     4.02285e+00
H      -2.06414e+00     4.00481e+00     3.95713e+00
O       9.08555e-01    -3.75572e+00     4.65379e+00
H       1.03715e+00    -3.19350e+00     3.88649e+00
H      -7.68557e-02    -3.81302e+00     4.75028e+00
O       3.33815e+00     7.43444e+00    -1.24677e+01
H       3.48278e+00     8.26846e+00    -1.19871e+01
H       2.38754e+00     7.18926e+00    -1.22857e+01
O       7.48186e+00    -4.26312e+00    -5.10183e+00
H       6.83338e+00    -4.52097e+00    -4.38189e+00
H       7.07834e+00    -3.50159e+00    -5.59886e+00
O       4.40666e+00    -3.23147e+00     3.02185e-02
H       4.45100e+00    -2.93088e+00     9.68408e-01
H       4.66776e+00    -2.49367e+00    -5.34537e-01
O      -5.59453e+00     5.38440e+00     5.07588e+00
H      -5.56383e+00     6.32997e+00     4.91918e+00
H      -4.98263e+00     5.42432e+00     5.88434e+00
O       2.79644e+00     9.47766e+00     4.44530e+00
H       2.37041e+00     8.57409e+00     4.31368e+00
H       3.54259e+00     9.30091e+00     4.99002e+00
1500
24.662 0.000 0.000 0.000 24.662 0.000 0.000 0.000 24.662
O       1.05312e+01     1.03376e+01    -9.82054e+00
H       9.97156e+00     1.00022e+01    -9.04715e+00
H       1.13758e+01     1.05789e+01    -9.38325e+00
O       1.34986e+01    -5.44882e+00     1.12623e+01
H       1.42741e+01    -5.57079e+00     1.06773e+01
H       1.37967e+01    -4.90432e+00     1.19707e+01
O       9.47252e+00    -5.62490e+00     4.90596e+00
H       8.79821e+00    -5.00133e+00     4.52547e+00
H       9.34872e+00    -5.68534e+00     5.89277e+00
O       5.17299e+00     1.06293e+01     9.12958e+00
H       5.38863e+00     1.08292e+01     8.20729e+00
H       5.64439e+00     9.74143e+00     9.34320e+00
O       6.41524e+00    -3.67440e+00     6.29154e+00
H       7.11890e+00    -3.46377e+00     6.93530e+00
H       6.80552e+00    -3.76917e+00     5.38417e+00
O      -3.98561e+00    -1.76340e+00     5.58986e+00
H      -3.53123e+00    -1.01160e+00     6.01871e+00
H      -4.48861e+00    -2.29486e+00     6.24874e+00
O       1.15740e+01     4.39407e+00     5.24365e+00
H       1.22680e+01     5.04911e+00     5.42677e+00
H       1.15538e+01     3.78355e+00     6.01781e+00
O      -3.48854e+00     6.31678e+00     1.13055e+01
H      -4.42093e+00     5.93024e+00     1.12218e+01
H      -3.13069e+00     6.13700e+00     1.04387e+01
O       7.43919e+00    -8.93196e+00     1.06177e+01
H       7.92082e+00    -8.89985e+00     9.76048e+00
H       7.10834e+00    -9.85014e+00     1.07810e+01
O       1.01692e+01     1.16396e+01     5.38551e-01
H       1.02919e+01     1.23197e+01    -1.40563e-01
H       1.05886e+01     1.09060e+01     6.97851e-02
O      -5.60364e-01    -1.02212e+01     2.17364e-01
H      -2.98692e-02    -9.47768e+00    -7.29656e-02
H      -9.70029e-01    -9.85631e+00     1.01130e+00
O      -1.61175e+00    -9.44707e+00     2.62660e+00
H      -2.56245e+00    -9.11273e+00     2.52293e+00
H      -1.51893e+00    -1.02179e+01     3.23413e+00
O       3.27516e+00     3.42982e+00     1.29237e+01
H       3.64558e+00     4.33557e+00     1.31975e+01
H       2.81528e+00     3.60501e+00     1.21023e+01
O       1.10028e+01     6.08110e+00    -1.06672e+01
H       1.06658e+01     6.07000e+00    -1.15769e+01
H       1.02884e+01     6.11271e+00    -1.00157e+01
O       1.45432e+01    -6.49839e+00     1.12507e+00
H       1.49694e+01    -6.23274e+00     2.57956e-01
H       1.38360e+01    -7.07399e+00     8.69504e-01
O       6.34282e+00     2.61815e+00    -6.46877e+00
H       6.15599e+00     3.54080e+00    -6.16955e+00
H       6.50242e+00     2.57312e+00    -7.47319e+00
O       3.74866e+00    -1.03344e+01     1.01930e+01
H       3.15239e+00    -1.08841e+01     1.07138e+01
H       3.39478e+00    -1.02400e+01     9.29679e+00
O      -5.76043e-01    -6.05070e+00    -4.90555e+00
H      -9.89216e-01    -5.39803e+00    -4.16290e+00
H       9.40369e-02    -6.64308e+00    -4.50741e+00
O      -3.49199e+00     1.17781e+01     4.10970e+00
H      -2.65361e+00     1.21158e+01     4.57580e+00
H      -3.26912e+00     1.17982e+01     3.14195e+00
O      -1.14217e+01    -8.83834e+00    -6.08313e+00
H      -1.12424e+01    -9.64298e+00    -5.51305e+00
H      -1.15939e+01    -8.11063e+00    -5.44895e+00
O      -5.52341e+00    -6.36727e+00     6.34879e+00
H      -5.26918e+00    -5.48770e+00     6.67410e+00
H      -4.69726e+00    -6.72910e+00     6.02162e+00
O      -1.33551e+01    -4.26551e+00     9.71810e+00
H      -1.27179e+01    -4.06572e+00     8.96474e+00
H      -1.27350e+01    -4.77052e+00     1.03235e+01
O      -9.77150e+00     2.91695e+00     9.44543e+00
H      -9.69059e+00     2.80890e+00     1.04347e+01
H      -9.61099e+00     1.95663e+00     9.10659e+00
O       1.21666e+01    -1.08170e+01     7.23275e+00
H       1.29826e+01    -1.07942e+01     7.79203e+00
H       1.22770e+01    -1.15842e+01     6.66081e+00
O       1.05543e+01    -6.38681e+00     1.39885e+00
H       1.00798e+01    -6.91357e+00     2.09885e+00
H       9.83404e+00    -6.19633e+00     8.09042e-01
O      -8.29252e+00     1.10909e+01    -4.17720e+00
H      -7.39582e+00     1.05674e+01    -4.12362e+00
H      -8.98446e+00     1.03983e+01    -4.12095e+00
O       2.81812e+00    -1.63525e+00    -8.44547e+00
H       2.38395e+00    -7.98492e-01    -8.63481e+00
H       2.95887e+00    -1.55037e+00    -7.42549e+00
O      -6.83582e+00     6.64290e+00     1.38936e+00
H      -6.57910e+00     7.44895e+00     7.66841e-01
H      -6.03908e+00     6.31101e+00     1.83664e+00
O       8.11870e-01     6.96319e+00    -1.24093e+01
H       4.86135e-01     6.83739e+00    -1.15089e+01
H       5.29746e-01     7.78242e+00    -1.28516e+01
O       1.38711e+00    -7.23312e+00    -3.25748e+00
H       1.12776e+00    -7.58138e+00    -2.34946e+00
H       1.87449e+00    -6.41143e+00    -3.18460e+00
O      -1.18679e+01     4.01368e+00     8.63599e+00
H      -1.24928e+01     3.42337e+00     8.17103e+00
H      -1.11610e+01     3.49447e+00     9.04025e+00
O      -5.18882e+00    -1.74114e+00    -3.91210e+00
H      -5.78670e+00    -1.94291e+00    -4.68880e+00
H      -5.10532e+00    -7.49279e-01    -3.62740e+00
O      -6.56227e+00     8.33508e+00     5.13668e+00
H      -7.25999e+00     8.35157e+00     4.41486e+00
H      -7.05592e+00     8.26362e+00     5.96450e+00
O       5.81390e+00    -3.88119e+00    -2.70368e+00
H       5.06267e+00    -4.48001e+00    -2.72933e+00
H       6.04708e+00    -3.87381e+00    -1.75308e+00
O       1.07915e+01    -3.87790e+00     2.49550e+00
H       1.04826e+01    -4.78697e+00     2.57528e+00
H       1.07620e+01    -3.46438e+00     3.37815e+00
O       1.05060e+01     5.93351e+00     1.12706e+01
H       1.01345e+01     5.12837e+00     1.08854e+01
H       1.12537e+01     6.23141e+00     1.06401e+01
O      -1.55278e+00    -1.17911e+01    -7.14200e+00
H      -1.10412e+00    -1.26527e+01    -7.19343e+00
H      -1.64332e+00    -1.13533e+01    -8.04753e+00
O       1.20759e+01     5.18810e+00    -2.83633e+00
H       1.14481e+01     5.16145e+00    -2.08650e+00
H       1.20811e+01     4.27462e+00    -3.23488e+00
O      -1.00334e+01     1.05238e+01     5.68871e+00
H      -9.27326e+00     1.09663e+01     5.19548e+00
H      -9.71399e+00     1.05459e+01     6.64005e+00
O       9.40539e+00    -1.04539e+01    -6.40242e+00
H       8.98153e+00    -9.82579e+00    -5.76555e+00
H       9.98426e+00    -9.88314e+00    -6.97190e+00
O       4.65910e+00    -7.95915e+00    -1.35119e+00
H       4.37535e+00    -7.14088e+00    -9.49182e-01
H       4.29906e+00    -8.59112e+00    -6.90225e-01
O      -1.55589e+00     9.38637e+00     9.19322e+00
H      -2.40058e+00     9.08912e+00     9.63780e+00
H      -1.68475e+00     1.02431e+01     8.77662e+00
O      -5.19531e+00    -7.43547e+00    -3.65043e-01
H      -4.84965e+00    -8.33228e+00    -6.35797e-01
H      -6.06606e+00    -7.47940e+00    -8.77590e-01
O      -7.09209e+00    -8.10903e+00    -7.39470e+00
H      -6.20402e+00    -8.46191e+00    -7.20158e+00
H      -7.64915e+00    -8.89652e+00    -7.56910e+00
O      -8.08460e+00    -8.40430e-01     2.44611e+00
H      -7.29116e+00    -1.21166e+00     2.91449e+00
H      -7.69690e+00    -4.29400e-01     1.59697e+00
O       2.46836e+00    -5.05340e+00     1.03753e+01
H       2.46900e+00    -4.81810e+00     1.13252e+01
H       3.40873e+00    -5.30455e+00     1.01511e+01
O       1.09518e+01     1.01235e+00    -2.83703e+00
H       1.10217e+01     1.81932e-01    -3.32918e+00
H       1.14903e+01     8.75248e-01    -2.00361e+00
O       1.01047e+01     1.08489e+01     5.85762e+00
H       1.01099e+01     1.03623e+01     6.68306e+00
H       1.10682e+01     1.11695e+01     5.82197e+00
O       1.80439e+00    -8.13765e+00    -1.09142e+01
H       1.59858e+00    -7.76862e+00    -1.00321e+01
H       1.16761e+00    -7.77437e+00    -1.15637e+01
O      -1.01536e+01    -8.90854e+00     1.08123e+01
H      -9.48220e+00    -8.90304e+00     1.15411e+01
H      -1.09998e+01    -8.67352e+00     1.12733e+01
O       8.49419e+00     1.22223e+01     8.67912e+00
H       9.23596e+00     1.28036e+01     8.92890e+00
H       8.78246e+00     1.14191e+01     9.09330e+00
O      -6.42769e+00    -4.16771e+00     2.23153e+00
H      -6.86880e+00    -4.80262e+00     2.88576e+00
H      -5.96378e+00    -3.37213e+00     2.77176e+00
O      -1.34975e+01    -8.91244e+00    -7.77891e+00
H      -1.26992e+01    -9.01568e+00    -7.16214e+00
H      -1.39204e+01    -7.99965e+00    -7.63134e+00
O       9.23587e+00    -8.00028e+00     3.62441e+00
H       8.47268e+00    -7.94404e+00     3.04245e+00
H       9.30954e+00    -7.15270e+00     4.14052e+00
O      -1.03731e+01     9.26044e+00    -6.92931e+00
H      -1.10342e+01     9.87168e+00    -7.40388e+00
H      -1.02286e+01     8.52285e+00    -7.52029e+00
O       2.69461e+00    -2.68616e+00     9.21465e+00
H       3.59333e+00    -2.51882e+00     8.88214e+00
H       2.57489e+00    -3.61186e+00     9.54029e+00
O       1.09256e+01    -1.08046e+01     1.19911e+01
H       1.07117e+01    -1.09002e+01     1.09904e+01
H       1.18610e+01    -1.05254e+01     1.20392e+01
O       5.64837e+00     4.19608e+00    -8.15841e-01
H       5.73290e+00     3.26840e+00    -3.40944e-01
H       4.97882e+00     3.97948e+00    -1.51022e+00
O      -1.15660e+01    -3.80515e+00    -6.62219e+00
H      -1.21554e+01    -3.04425e+00    -6.69245e+00
H      -1.07649e+01    -3.44071e+00    -6.31898e+00
O       7.52550e+00    -4.08815e+00     3.90833e+00
H       7.56255e+00    -3.15930e+00     3.69439e+00
H       6.92669e+00    -4.56734e+00     3.30645e+00
O       8.74119e+00     8.20520e+00     1.13191e+01
H       9.20583e+00     7.36037e+00     1.12795e+01
H       9.39985e+00     8.90133e+00     1.11113e+01
O      -7.05294e+00     1.10346e+01     5.83723e-01
H      -6.70269e+00     1.00734e+01     5.76549e-01
H      -7.80334e+00     1.11061e+01     1.31202e+00
O       1.06052e+01    -4.75400e+00    -9.56461e+00
H       1.04177e+01    -5.36992e+00    -1.03341e+01
H       1.03397e+01    -5.24836e+00    -8.78194e+00
O      -1.04464e+00    -8.15851e-01    -2.21703e+00
H      -1.30586e+00    -1.64332e+00    -2.62356e+00
H      -1.60003e+00    -8.37102e-02    -2.56339e+00
O       7.05605e+00    -4.06894e+00     9.47064e+00
H       6.34786e+00    -4.77072e+00     9.72657e+00
H       7.55901e+00    -3.96860e+00     1.02619e+01
O       1.28918e+01    -8.87252e+00     5.39502e+00
H       1.25976e+01    -9.43174e+00     6.14785e+00
H       1.32422e+01    -8.06320e+00     5.86783e+00
O      -7.43104e+00    -3.71116e+00    -1.22104e-01
H      -6.65726e+00    -3.44439e+00    -6.92062e-01
H      -6.98007e+00    -3.82227e+00     7.78740e-01
O       2.21785e+00     1.42269e+01    -6.88248e+00
H       1.83237e+00     1.42280e+01    -5.98672e+00
H       3.18588e+00     1.40642e+01    -6.67609e+00
O       4.20245e+00    -1.24096e+01     4.55406e+00
H       4.64001e+00    -1.23640e+01     3.65356e+00
H       4.63032e+00    -1.15922e+01     4.90741e+00
O       3.31791e+00     8.25864e+00     1.97265e-01
H       3.46986e+00     8.66333e+00     1.07123e+00
H       3.52489e+00     7.31796e+00     2.89845e-01
O      -1.23014e+01    -1.36556e+01    -7.96141e+00
H      -1.28131e+01    -1.37028e+01    -7.14040e+00
H      -1.21767e+01    -1.26848e+01    -8.12315e+00
O       1.32580e+01    -9.16006e+00    -2.05016e+00
H       1.33095e+01    -8.46896e+00    -2.77910e+00
H       1.27887e+01    -8.74694e+00    -1.31100e+00
O      -6.25398e+00     1.20729e+01     1.07802e+01
H      -7.18235e+00     1.17777e+01     1.04926e+01
H      -5.63269e+00     1.20320e+01     9.97110e+00
O       2.16097e+00    -7.72351e+00    -8.14728e+00
H       3.03017e+00    -7.44546e+00    -8.40942e+00
H       2.37439e+00    -8.57412e+00    -7.73928e+00
O       9.91835e+00     1.20219e+00    -6.39902e+00
H       8.96052e+00     9.23349e-01    -6.13922e+00
H       1.00210e+01     1.93464e+00    -5.75287e+00
O      -2.95940e+00    -3.98719e+00     1.16303e-01
H      -1.91511e+00    -4.11117e+00     9.45147e-02
H      -3.23377e+00    -4.72333e+00     6.88691e-01
O      -8.38943e+00     1.21194e+01    -1.79126e+00
H      -8.23924e+00     1.16337e+01    -2.67892e+00
H      -8.04450e+00     1.15949e+01    -9.95663e-01
O       8.83736e+00    -9.74929e+00    -2.22998e+00
H       8.42235e+00    -9.07203e+00    -1.66331e+00
H       8.83083e+00    -9.31544e+00    -3.08721e+00
O       1.34757e+01     5.55522e+00    -7.30834e+00
H       1.26136e+01     5.60594e+00    -6.82888e+00
H       1.34755e+01     6.35924e+00    -7.88623e+00
O      -4.51583e+00     5.40993e+00    -5.20161e+00
H      -4.60402e+00     6.35113e+00    -5.47150e+00
H      -5.04097e+00     5.43705e+00    -4.39553e+00
O      -8.33207e+00    -1.12372e+01    -5.18848e+00
H      -8.26151e+00    -1.22038e+01    -4.82926e+00
H      -7.53108e+00    -1.07271e+01    -4.87869e+00
O      -9.93442e+00     2.19352e+00    -1.25413e+01
H      -9.52354e+00     2.22751e+00    -1.16858e+01
H      -1.08240e+01     1.69464e+00    -1.24331e+01
O      -1.11936e+01     4.49920e+00    -1.26015e+01
H      -1.20987e+01     4.52746e+00    -1.26971e+01
H      -1.08050e+01     3.64809e+00    -1.28471e+01
O      -5.72091e+00    -1.78867e+00     3.32759e+00
H      -5.27957e+00    -1.17026e+00     2.71811e+00
H      -5.18678e+00    -1.67149e+00     4.16563e+00
O       4.85843e+00    -2.38662e+00    -1.01512e+01
H       4.30099e+00    -3.04189e+00    -1.06522e+01
H       4.22824e+00    -2.10920e+00    -9.43939e+00
O      -7.98973e+00    -8.94903e+00    -1.19661e+01
H      -7.16756e+00    -9.35352e+00    -1.21464e+01
H      -8.56397e+00    -9.23952e+00    -1.12078e+01
O       7.97640e+00     1.05387e+01     1.95234e+00
H       7.65715e+00     9.98978e+00     1.18167e+00
H       8.81841e+00     1.08232e+01     1.52950e+00
O       1.06288e+01    -1.14802e+01    -1.49443e+00
H       1.00699e+01    -1.06277e+01    -1.69513e+00
H       1.15528e+01    -1.13135e+01    -1.82593e+00
O       5.70791e-01     5.81946e+00    -9.96649e+00
H       9.07024e-01     4.85499e+00    -1.00137e+01
H       1.31276e+00     6.22832e+00    -9.45378e+00
O      -2.50830e+00    -2.35278e+00    -4.15535e+00
H      -3.46320e+00    -2.08141e+00    -4.03396e+00
H      -2.46976e+00    -3.03214e+00    -4.83242e+00
O      -2.18309e+00    -2.22233e+00     2.08529e+00
H      -2.88466e+00    -1.56416e+00     2.30437e+00
H      -2.62960e+00    -2.86747e+00     1.52608e+00
O      -4.91608e+00     8.06211e+00    -2.29362e+00
H      -4.00763e+00     8.25328e+00    -2.60954e+00
H      -5.55794e+00     8.76889e+00    -2.66793e+00
O       9.69528e+00     4.69332e+00     3.52479e+00
H       8.90955e+00     4.76635e+00     4.08901e+00
H       1.04356e+01     4.44004e+00     4.12586e+00
O       2.24552e-01     1.10230e+01     1.24785e+01
H       2.85763e-01     1.06055e+01     1.33680e+01
H       1.29158e-01     1.02972e+01     1.17622e+01
O       2.52127e+00     1.16724e+00     4.47004e-01
H       2.13291e+00     2.02078e+00     1.91617e-01
H       1.98650e+00     9.13631e-01     1.22393e+00
O       8.68247e+00    -5.78578e+00    -3.72426e-01
H       8.23011e+00    -6.46025e+00    -9.51447e-01
H       9.14770e+00    -5.12982e+00    -9.94293e-01
O       1.17052e+01    -1.12785e+01    -9.07979e+00
H       1.13854e+01    -1.03532e+01    -8.99045e+00
H       1.09498e+01    -1.18619e+01    -9.08637e+00
O      -5.00252e-01    -1.21722e+00     1.41918e+01
H      -1.22962e+00    -1.14921e+00     1.48548e+01
H      -4.59767e-02    -1.93654e+00     1.46583e+01
O      -3.74345e-01     1.04808e+01    -2.29098e+00
H      -3.44611e-01     1.09044e+01    -1.38524e+00
H       4.66205e-01     1.07005e+01    -2.68885e+00
O      -1.14177e+01    -6.80351e+00     7.33272e+00
H      -1.06146e+01    -6.75426e+00     7.95453e+00
H      -1.12473e+01    -6.14436e+00     6.61096e+00
O       7.18757e+00     1.07193e+01    -4.61145e+00
H       8.13069e+00     1.04830e+01    -4.59242e+00
H       7.03883e+00     1.15015e+01    -4.00054e+00
O       2.99164e+00    -5.34495e+00     5.07769e+00
H       3.29847e+00    -5.63226e+00     4.21396e+00
H       2.69395e+00    -4.45162e+00     4.95857e+00
O       8.91907e+00    -4.37429e-01    -1.01844e+01
H       9.00924e+00     4.04439e-01    -9.65662e+00
H       8.00538e+00    -4.35962e-01    -1.05760e+01
O      -8.91951e+00     5.62772e+00    -6.28051e+00
H      -8.39477e+00     6.33763e+00    -6.72351e+00
H      -9.80254e+00     5.52017e+00    -6.73791e+00
O       1.01632e+01     4.83272e+00    -9.50350e-01
H       9.76572e+00     5.68615e+00    -8.42019e-01
H       9.40047e+00     4.30986e+00    -1.32089e+00
O       1.59503e+00     7.04208e+00     4.34179e+00
H       1.63473e+00     6.21953e+00     3.85858e+00
H       1.37436e+00     6.81387e+00     5.30782e+00
O       3.56520e+00     1.00156e+01    -6.20280e+00
H       3.68828e+00     9.09327e+00    -5.84961e+00
H       4.49536e+00     1.03852e+01    -6.37600e+00
O      -6.66297e+00    -2.18140e+00    -6.10045e+00
H      -6.40999e+00    -2.79847e+00    -6.79529e+00
H      -7.53577e+00    -2.38505e+00    -5.74628e+00
O       6.93923e-01     5.87587e+00    -1.97277e+00
H      -1.10653e-01     5.67216e+00    -2.37235e+00
H       4.92170e-01     6.70911e+00    -1.42869e+00
O      -7.15002e+00    -5.85752e+00     4.25264e+00
H      -6.48756e+00    -6.03295e+00     4.93042e+00
H      -7.66800e+00    -5.05073e+00     4.52851e+00
O       1.31426e+01    -4.11907e+00    -1.63418e+00
H       1.33995e+01    -3.45249e+00    -9.34479e-01
H       1.38564e+01    -4.80381e+00    -1.54649e+00
O       1.07472e+00    -3.45433e+00    -9.54223e+00
H       7.25519e-01    -4.09522e+00    -8.88289e+00
H       1.76928e+00    -2.92416e+00    -9.06309e+00
O      -4.53654e+00     2.47623e+00    -1.08732e+01
H      -5.28342e+00     2.94260e+00    -1.04447e+01
H      -3.77205e+00     3.07809e+00    -1.09271e+01
O       5.56648e-02    -4.05988e+00     6.01741e-01
H       3.88791e-01    -3.45262e+00    -1.33939e-01
H       4.71357e-01    -3.64712e+00     1.35275e+00
O      -2.77931e+00    -1.32862e+01     1.10863e+00
H      -1.89255e+00    -1.31650e+01     6.92512e-01
H      -2.98962e+00    -1.42663e+01     1.17151e+00
O      -1.69671e+00    -5.80368e+00     6.34013e+00
H      -2.06662e+00    -6.60007e+00     5.86140e+00
H      -1.98332e+00    -4.98656e+00     5.89998e+00
O      -5.94377e+00    -3.44859e+00    -8.43329e+00
H      -6.23682e+00    -4.41929e+00    -8.55519e+00
H      -6.14186e+00    -3.01828e+00    -9.34837e+00
O      -8.22065e+00     3.06955e+00    -5.79669e+00
H      -7.33788e+00     3.01648e+00    -6.26364e+00
H      -8.49810e+00     3.99697e+00    -6.05121e+00
O      -6.12073e+00    -1.00794e+01     2.39242e+00
H      -6.99686e+00    -9.84560e+00     2.03712e+00
H      -5.69012e+00    -1.08236e+01     1.82793e+00
O       5.85903e-01    -6.76741e+00     9.37783e+00
H       1.17631e+00    -6.05388e+00     9.61841e+00
H      -2.66244e-01    -6.37335e+00     8.99992e+00
O      -1.12806e+01    -4.49835e+00    -9.40647e+00
H      -1.12441e+01    -4.20981e+00    -8.44129e+00
H      -1.22676e+01    -4.64508e+00    -9.51967e+00
O       1.16260e+00     6.64398e+00     6.90976e+00
H       4.02508e-01     7.29548e+00     7.08942e+00
H       1.93371e+00     7.11466e+00     7.31152e+00
O      -9.30176e+00     9.53058e-01     4.18096e+00
H      -9.30660e+00     1.80555e+00     3.70459e+00
H      -8.85133e+00     3.56731e-01     3.57254e+00
O       5.77902e+00     1.96645e+00     9.48096e+00
H       5.82315e+00     1.35317e+00     1.01868e+01
H       4.84846e+00     2.17838e+00     9.32092e+00
O      -7.69837e+00    -6.24861e+00    -1.15201e+01
H      -8.00863e+00    -7.15091e+00    -1.15652e+01
H      -8.57181e+00    -5.71157e+00    -1.16435e+01
O      -1.02588e+01    -2.15749e+00     3.20188e+00
H      -1.05640e+01    -2.97513e+00     2.77598e+00
H      -9.55844e+00    -1.65891e+00     2.71068e+00
O       4.92818e+00    -5.98039e+00     6.67418e+00
H       5.34946e+00    -5.13274e+00     6.47452e+00
H       4.04121e+00    -5.84079e+00     6.25313e+00
O      -6.94220e+00     7.95263e+00    -1.04070e+01
H      -7.75580e+00     8.52950e+00    -1.04776e+01
H      -7.02868e+00     7.10429e+00    -1.07650e+01
O       4.21245e+00     6.26962e+00     9.81070e+00
H       4.19180e+00     6.84508e+00     1.06283e+01
H       3.95005e+00     6.86713e+00     9.05131e+00
O       6.47601e+00     8.26463e+00     9.88892e+00
H       7.12344e+00     8.20290e+00     1.06086e+01
H       5.94000e+00     7.48116e+00     9.77040e+00
O      -8.40955e+00     7.67251e+00     3.47793e+00
H      -7.77648e+00     7.39273e+00     2.80385e+00
H      -9.01769e+00     8.35613e+00     3.09032e+00
O       2.46270e+00     4.45161e+00     3.05423e+00
H       3.00855e+00     4.68647e+00     2.23975e+00
H       1.57542e+00     4.10587e+00     2.67715e+00
O      -2.02995e+00     3.47299e+00     5.45450e+00
H      -1.27074e+00     3.76205e+00     6.02713e+00
H      -2.59614e+00     2.95592e+00     6.02363e+00
O      -6.98665e+00    -7.55170e+00     8.47107e+00
H      -7.41268e+00    -8.37228e+00     8.11495e+00
H      -6.37904e+00    -7.21888e+00     7.80461e+00
O      -8.31260e+00    -9.80245e+00     7.43046e+00
H      -7.54410e+00    -1.04330e+01     7.46023e+00
H      -8.55868e+00    -9.71753e+00     6.46480e+00
O       4.06351e+00     5.59984e+00    -1.08013e+01
H       5.07382e+00     5.51788e+00    -1.07252e+01
H       3.97681e+00     6.23634e+00    -1.15042e+01
O      -1.95327e+00    -3.51689e+00     4.72273e+00
H      -2.06922e+00    -3.29970e+00     3.75431e+00
H      -2.42281e+00    -2.80814e+00     5.16309e+00
O       3.62065e+00     2.56888e+00    -5.36835e+00
H       4.48916e+00     2.48024e+00    -5.84693e+00
H       2.98747e+00     3.20646e+00    -5.78624e+00
O      -3.08491e+00    -8.43291e+00     9.42819e+00
H      -3.90605e+00    -8.31865e+00     9.97954e+00
H      -2.41186e+00    -8.89782e+00     9.98890e+00
O       1.26665e+01     8.90484e-01     3.62703e+00
H       1.35703e+01     7.26654e-01     3.90168e+00
H       1.27002e+01     1.79438e+00     3.35832e+00
O      -4.73123e+00     9.58109e+00    -9.85014e+00
H      -5.24352e+00     8.86199e+00    -1.03126e+01
H      -4.73485e+00     1.02874e+01    -1.05108e+01
O       1.14132e+01    -5.36319e+00    -5.01329e+00
H       1.08906e+01    -4.64610e+00    -4.52060e+00
H       1.21775e+01    -4.84731e+00    -5.51700e+00
O       1.44267e+00     3.23587e+00    -9.68321e+00
H       7.40616e-01     3.08264e+00    -1.02154e+01
H       2.18332e+00     3.09872e+00    -1.03100e+01
O       2.49264e+00    -3.96076e-01     1.06476e+01
H       3.38058e+00    -3.21473e-01     1.09399e+01
H       2.46985e+00    -1.20625e+00     1.01377e+01
O       1.46081e+00    -1.85209e+00     6.83962e+00
H       1.77286e+00    -2.27286e+00     7.69262e+00
H       1.16154e+00    -2.46792e+00     6.15624e+00
O      -7.97222e+00     6.18632e+00     9.39267e+00
H      -7.20032e+00     6.11922e+00     9.98285e+00
H      -7.91285e+00     5.41093e+00     8.76328e+00
O       2.42930e+00     4.33826e+00     1.06031e+01
H       1.49035e+00     4.43894e+00     1.05719e+01
H       2.91621e+00     5.13766e+00     1.03301e+01
O      -9.92842e+00     4.01877e-01     8.71962e+00
H      -9.23823e+00     2.08818e-01     7.95857e+00
H      -9.58926e+00    -1.18782e-01     9.54154e+00
O       7.89928e+00    -6.12339e+00    -5.79207e+00
H       7.82809e+00    -5.24857e+00    -5.40724e+00
H       6.94622e+00    -6.18723e+00    -6.14406e+00
O      -4.30009e+00    -6.39217e+00    -1.22287e+01
H      -4.85468e+00    -6.84010e+00    -1.29079e+01
H      -4.58700e+00    -5.40138e+00    -1.21956e+01
O      -2.24576e+00     3.98400e+00    -4.45158e+00
H      -1.66940e+00     3.90979e+00    -5.25941e+00
H      -3.10802e+00     4.40599e+00    -4.84092e+00
O      -8.98815e+00    -3.42510e+00     9.03569e+00
H      -8.55998e+00    -4.17957e+00     9.43497e+00
H      -8.52968e+00    -3.33269e+00     8.17673e+00
O       1.24452e+01     1.17633e+01     5.34968e+00
H       1.23819e+01     1.20247e+01     4.37053e+00
H       1.32837e+01     1.12410e+01     5.49543e+00
O      -3.27365e+00    -7.60985e+00     5.38789e+00
H      -3.48876e+00    -7.85348e+00     4.48551e+00
H      -3.44351e+00    -8.37216e+00     5.97853e+00
O      -4.82892e+00     5.32642e+00     2.78876e+00
H      -3.88812e+00     5.44978e+00     2.75317e+00
H      -5.19417e+00     5.24809e+00     3.70228e+00
O       7.25569e+00     8.46437e+00    -1.08891e+01
H       8.03947e+00     8.48386e+00    -1.14897e+01
H       7.41732e+00     9.17139e+00    -1.02267e+01
O       5.67406e+00     2.77256e+00     5.01470e+00
H       5.98174e+00     2.38054e+00     5.85514e+00
H       6.10036e+00     3.70150e+00     4.93968e+00
O       7.15427e+00    -1.14910e+01     1.18978e+01
H       6.36305e+00    -1.20687e+01     1.19330e+01
H       8.01367e+00    -1.19426e+01     1.19405e+01
O      -1.58974e-01     4.82068e+00     1.10106e+01
H       4.84977e-02     5.70723e+00     1.13327e+01
H      -8.95103e-01     4.99588e+00     1.04104e+01
O       6.51326e+00     1.22875e+00     6.78455e+00
H       6.30914e+00     1.42511e+00     7.72340e+00
H       6.09133e+00     4.22908e-01     6.54197e+00
O      -4.17390e+00    -3.81259e+00    -1.17596e+01
H      -3.41889e+00    -3.23047e+00    -1.21473e+01
H      -3.92580e+00    -3.80235e+00    -1.08089e+01
O      -8.44724e+00     5.23923e+00     5.02299e+00
H      -7.47392e+00     5.40681e+00     5.28022e+00
H      -8.70650e+00     5.89260e+00     4.37789e+00
O       4.70523e+00    -1.35762e+00    -2.24489e+00
H       5.22565e+00    -2.07832e+00    -2.72850e+00
H       5.38763e+00    -7.38036e-01    -1.85035e+00
O       1.18744e+00    -8.20041e+00    -8.18127e-01
H       1.97970e+00    -8.78581e+00    -6.34587e-01
H       1.29801e+00    -7.37737e+00    -3.08718e-01
O       9.85765e-01     1.17820e+01     8.09650e+00
H       6.14965e-01     1.13565e+01     7.28258e+00
H       1.48335e+00     1.25496e+01     7.75917e+00
O       1.26013e+01    -8.16301e+00    -1.02520e+01
H       1.21354e+01    -8.29033e+00    -9.38710e+00
H       1.21521e+01    -8.75737e+00    -1.08924e+01
O       5.34449e+00     8.58835e+00     6.29837e+00
H       6.07647e+00     8.04547e+00     6.03135e+00
H       5.65949e+00     9.51072e+00     6.32164e+00
O       9.66741e+00     9.55025e+00    -5.28878e+00
H       1.02742e+01     1.02799e+01    -5.34555e+00
H       1.00924e+01     8.75850e+00    -4.84297e+00
O      -2.71121e+00     4.48011e+00    -1.09994e+01
H      -1.82892e+00     4.01606e+00    -1.12984e+01
H      -2.90824e+00     5.19754e+00    -1.16167e+01
O      -5.80149e+00    -1.10244e+01     7.00460e+00
H      -5.39962e+00    -1.18854e+01     7.35128e+00
H      -5.84360e+00    -1.10957e+01     6.00028e+00
O      -1.09721e+00    -1.14363e+01     4.62134e+00
H      -1.14491e+00    -1.11072e+01     5.54747e+00
H      -1.31439e-01    -1.16296e+01     4.56941e+00
O      -1.12876e+01    -1.10702e+01    -1.15285e+01
H      -1.19896e+01    -1.12050e+01    -1.09079e+01
H      -1.05398e+01    -1.06880e+01    -1.09516e+01
O      -4.35701e+00    -2.80158e-01     1.68253e+00
H      -4.29760e+00    -5.54277e-01     7.74627e-01
H      -4.30542e+00     7.15079e-01     1.80627e+00
O      -9.18863e+00    -5.38139e+00    -4.11234e+00
H      -9.11795e+00    -5.23322e+00    -3.15503e+00
H      -8.35365e+00    -5.95275e+00    -4.35940e+00
O       5.30025e-01     8.34263e+00    -6.54392e-01
H       4.24603e-01     9.05196e+00    -1.30435e+00
H       1.48553e+00     8.37753e+00    -4.70117e-01
O      -5.50356e+00    -7.93207e+00     1.05446e+01
H      -5.69993e+00    -8.78965e+00     1.09767e+01
H      -6.20420e+00    -7.90467e+00     9.83895e+00
O      -2.09818e-01     1.06304e+01    -6.89186e+00
H       2.47863e-01     1.03326e+01    -7.69182e+00
H       4.03045e-01     1.07571e+01    -6.18924e+00
O       5.74161e-01     4.85978e-02     2.10976e+00
H      -1.16486e-01    -8.77101e-02     1.43144e+00
H       1.87316e-01     5.41418e-01     2.83131e+00
O       5.70554e+00    -1.27254e+01     2.29173e+00
H       5.76163e+00    -1.23650e+01     1.39046e+00
H       6.60174e+00    -1.31414e+01     2.52207e+00
O      -8.96101e+00     3.40206e+00     3.09077e+00
H      -8.62450e+00     4.08325e+00     3.76322e+00
H      -8.90989e+00     3.89613e+00     2.24853e+00
O       7.27850e+00     5.25246e+00    -8.17468e+00
H       6.89591e+00     5.73076e+00    -8.98415e+00
H       7.00256e+00     4.35596e+00    -8.40619e+00
O      -4.06228e+00    -7.13116e+00    -9.33754e+00
H      -4.85084e+00    -6.61634e+00    -8.97943e+00
H      -4.15290e+00    -6.96884e+00    -1.03172e+01
O      -2.47444e+00     1.60442e+00    -3.06680e+00
H      -2.24944e+00     2.35336e+00    -3.67931e+00
H      -3.33920e+00     1.33596e+00    -3.43610e+00
O      -3.14198e+00    -1.10533e+01    -1.15178e+01
H      -3.35917e+00    -1.20022e+01    -1.17368e+01
H      -2.63133e+00    -1.06424e+01    -1.22746e+01
O      -1.03288e+00    -1.03169e+01    -4.94265e+00
H      -9.38246e-01    -1.08552e+01    -5.79084e+00
H      -1.47809e+00    -1.08939e+01    -4.23312e+00
O      -2.53429e+00    -1.04189e+01    -1.73292e+00
H      -1.83761e+00    -1.02616e+01    -1.06080e+00
H      -3.40666e+00    -1.04172e+01    -1.35413e+00
O       5.38953e+00    -1.88794e+00     8.91765e+00
H       5.53449e+00    -1.51591e+00     8.02699e+00
H       6.05348e+00    -2.58128e+00     9.10851e+00
O      -1.21778e+01     6.47254e+00     9.62389e+00
H      -1.13511e+01     6.69936e+00     1.01089e+01
H      -1.19633e+01     5.54055e+00     9.27061e+00
O      -6.64736e-01     8.53527e+00     6.77385e+00
H      -1.71333e-01     9.28618e+00     6.39720e+00
H      -9.28087e-01     8.72260e+00     7.72168e+00
O      -8.26933e+00     1.56271e-01     6.59834e+00
H      -7.44177e+00     6.80708e-01     6.85243e+00
H      -8.65297e+00     5.64801e-01     5.74057e+00
O       4.29578e+00     7.32098e+00    -5.14908e+00
H       4.96347e+00     6.68888e+00    -5.51288e+00
H       3.55986e+00     6.74489e+00    -4.74625e+00
O      -1.32313e+01    -1.69916e+00    -7.01171e+00
H      -1.26692e+01    -1.45704e+00    -7.74915e+00
H      -1.40595e+01    -1.99129e+00    -7.47643e+00
O      -4.45289e+00    -5.75302e+00     1.60960e+00
H      -4.99964e+00    -6.34076e+00     1.00516e+00
H      -5.12647e+00    -5.21632e+00     2.16793e+00
O      -7.67652e+00    -2.76979e+00     6.78431e+00
H      -7.79765e+00    -1.80390e+00     6.68483e+00
H      -7.91399e+00    -3.15523e+00     5.90951e+00
O       1.30040e+01    -1.75738e+00    -9.39223e+00
H       1.32035e+01    -2.71174e+00    -9.64413e+00
H       1.23997e+01    -1.45172e+00    -1.01124e+01
O       8.83941e+00    -5.38210e+00     7.74901e+00
H       9.31481e+00    -5.65839e+00     8.51416e+00
H       8.03411e+00    -5.06660e+00     8.24674e+00
O       1.09331e+01     5.27803e+00    -6.21765e+00
H       1.06317e+01     4.59093e+00    -5.63213e+00
H       1.06228e+01     6.09115e+00    -5.63723e+00
O       3.16259e+00    -9.16094e+00    -3.43549e+00
H       2.44622e+00    -8.48392e+00    -3.52840e+00
H       3.44286e+00    -9.06076e+00    -2.51932e+00
O       1.04370e+01    -2.30672e+00     4.74687e+00
H       1.02311e+01    -1.35978e+00     4.63065e+00
H       9.93218e+00    -2.55824e+00     5.57884e+00
O       1.51848e+00     1.08967e+01    -4.61663e+00
H       1.58980e+00     1.18624e+01    -4.53825e+00
H       2.29067e+00     1.06395e+01    -5.13049e+00
O       2.57425e+00     1.25476e+01    -1.29059e+01
H       1.77813e+00     1.19395e+01    -1.27631e+01
H       2.73307e+00     1.30584e+01    -1.20522e+01
O       7.71824e-01    -8.77141e+00     7.39713e+00
H       5.89206e-01    -8.07072e+00     6.70818e+00
H       9.08402e-01    -8.10284e+00     8.06304e+00
O       9.27553e+00     8.71398e+00    -7.74171e+00
H       9.35559e+00     8.90170e+00    -6.80349e+00
H       9.48392e+00     7.76864e+00    -7.95828e+00
O       7.56547e+00    -1.03230e+01    -1.03439e+01
H       7.38427e+00    -1.07927e+01    -1.12476e+01
H       8.10598e+00    -9.55083e+00    -1.07068e+01
O      -6.07601e+00    -2.16348e+00    -1.09222e+01
H      -5.63315e+00    -1.35903e+00    -1.05192e+01
H      -5.41334e+00    -2.61624e+00    -1.14682e+01
O       2.57474e+00     5.74976e+00    -3.89249e+00
H       1.88413e+00     5.78948e+00    -3.15154e+00
H       2.16612e+00     5.39988e+00    -4.74195e+00
O      -1.10277e+01     5.38446e+00     6.34102e+00
H      -1.00628e+01     5.56059e+00     6.10354e+00
H      -1.10249e+01     5.00782e+00     7.26157e+00
O       1.12536e+01     1.57001e+00     9.90300e+00
H       1.15681e+01     1.52036e+00     1.08726e+01
H       1.07228e+01     7.51880e-01     9.71846e+00
O       9.71238e+00     1.07094e+01    -2.71956e+00
H       1.06274e+01     1.03501e+01    -2.81751e+00
H       9.90143e+00     1.16487e+01    -2.49847e+00
O       3.03964e+00     2.13950e+00     4.63021e+00
H       2.75840e+00     2.83177e+00     4.04589e+00
H       3.91730e+00     2.56126e+00     4.97886e+00
O      -7.37457e+00    -7.15444e+00    -4.89880e+00
H      -7.41985e+00    -7.55276e+00    -5.83837e+00
H      -6.52245e+00    -6.76546e+00    -4.81240e+00
O       1.25378e+01     8.15065e+00     1.60508e+00
H       1.22095e+01     8.66288e+00     8.10105e-01
H       1.16658e+01     7.84859e+00     1.94833e+00
O      -3.97780e+00    -8.27497e+00     2.74500e+00
H      -4.15915e+00    -7.35190e+00     2.36228e+00
H      -4.74747e+00    -8.82308e+00     2.55226e+00
O       1.91372e+00     3.63031e+00    -9.66285e-01
H       2.46136e+00     3.55577e+00    -1.79998e+00
H       1.29835e+00     4.38337e+00    -1.16575e+00
O      -7.47344e+00     8.21453e+00     7.57691e+00
H      -8.25174e+00     8.78040e+00     7.82958e+00
H      -7.64197e+00     7.40071e+00     8.13620e+00
O      -6.87698e+00     8.53810e-03    -7.61826e+00
H      -7.71717e+00     5.15929e-01    -7.45924e+00
H      -6.87563e+00    -8.17126e-01    -7.06118e+00
O      -7.26206e+00     5.41106e+00    -1.10816e+01
H      -7.00542e+00     4.79004e+00    -1.04072e+01
H      -8.24234e+00     5.31844e+00    -1.11468e+01
O      -8.43887e+00    -1.08281e+00     1.03207e+01
H      -8.64617e+00    -1.99095e+00     9.92503e+00
H      -8.67837e+00    -1.28758e+00     1.12948e+01
O       1.19189e+00     1.29585e+01    -8.85715e+00
H       2.65432e-01     1.32404e+01    -9.11743e+00
H       1.43066e+00     1.33946e+01    -8.02644e+00
O       9.73739e+00     6.17306e+00    -8.39974e+00
H       8.82218e+00     5.91163e+00    -8.37075e+00
H       1.02371e+01     5.71339e+00    -7.65872e+00
O       1.21771e+01     1.40848e+00    -1.22684e+01
H       1.18602e+01     2.01780e+00    -1.15052e+01
H       1.19644e+01     5.18890e-01    -1.19803e+01
O       1.04684e+01    -3.95750e+00    -1.47951e+00
H       1.14026e+01    -4.25124e+00    -1.51631e+00
H       1.03521e+01    -3.24161e+00    -8.43186e-01
O       3.13632e+00     8.85405e+00    -8.57045e+00
H       3.24927e+00     9.40356e+00    -7.72266e+00
H       3.76902e+00     9.05471e+00    -9.28075e+00
O      -5.79993e+00     1.03026e+01    -7.41094e+00
H      -5.21417e+00     1.10303e+01    -7.14179e+00
H      -5.52121e+00     1.00860e+01    -8.32735e+00
O      -2.86899e+00    -4.45906e+00    -6.15617e+00
H      -2.31458e+00    -5.24398e+00    -6.37875e+00
H      -3.10164e+00    -4.08604e+00    -7.06373e+00
O       1.31883e+01    -3.70742e+00     8.02496e+00
H       1.39923e+01    -3.60620e+00     8.53681e+00
H       1.32048e+01    -3.11592e+00     7.22196e+00
O       4.98858e+00    -5.76559e+00     9.40868e+00
H       5.09166e+00    -6.64553e+00     9.83656e+00
H       5.09129e+00    -5.84335e+00     8.46697e+00
O      -4.00438e+00    -8.55611e+00    -3.47397e+00
H      -3.37821e+00    -9.28623e+00    -3.27383e+00
H      -3.49501e+00    -8.08904e+00    -4.24048e+00
O      -8.64501e+00    -1.00097e+01     1.50573e+00
H      -9.13942e+00    -1.08195e+01     1.68922e+00
H      -8.61832e+00    -9.98461e+00     4.70097e-01
O       1.13585e+01     1.17756e+01    -5.73912e+00
H       1.21481e+01     1.19439e+01    -5.18893e+00
H       1.08044e+01     1.25895e+01    -5.76418e+00
O       7.29152e+00    -7.88482e+00    -1.00821e+00
H       7.20918e+00    -7.85115e+00    -2.10545e-02
H       6.27561e+00    -7.93883e+00    -1.19844e+00
O       9.44299e+00     3.70831e+00     1.03035e+01
H       1.01060e+01     3.08464e+00     1.00417e+01
H       9.06825e+00     4.05366e+00     9.38846e+00
O      -8.31942e+00     1.10244e+01    -7.73080e+00
H      -8.93516e+00     1.05684e+01    -7.10318e+00
H      -7.46018e+00     1.06848e+01    -7.57863e+00
O      -5.66567e+00     3.52530e+00    -6.81898e+00
H      -5.23995e+00     4.29846e+00    -6.42346e+00
H      -4.99375e+00     2.84385e+00    -6.76312e+00
O       5.25160e+00    -1.19684e+01    -5.43669e-01
H       4.91321e+00    -1.28847e+01    -7.56233e-01
H       5.85788e+00    -1.17352e+01    -1.36205e+00
O       5.80184e+00    -8.21160e+00     5.49829e+00
H       5.39786e+00    -7.42519e+00     5.98223e+00
H       6.75994e+00    -8.34575e+00     5.77956e+00
O      -6.17238e+00     9.82348e+00    -3.98033e+00
H      -5.97670e+00     9.14455e+00    -4.70471e+00
H      -5.50968e+00     1.06073e+01    -4.06854e+00
O       2.28793e+00    -2.05987e-01    -2.21767e+00
H       3.23126e+00    -4.62729e-01    -2.27648e+00
H       2.29196e+00     3.00128e-01    -1.39353e+00
O      -9.79544e+00     5.33576e+00    -1.04327e+01
H      -1.03335e+01     4.97048e+00    -1.11825e+01
H      -1.01805e+01     6.20350e+00    -1.02222e+01
O       1.00859e+01     6.97347e+00     2.55785e+00
H       9.71274e+00     7.72973e+00     3.07305e+00
H       1.00461e+01     6.11412e+00     3.07080e+00
O       8.63054e+00     7.67370e+00     7.94888e+00
H       7.88499e+00     7.89189e+00     8.52907e+00
H       9.40993e+00     8.17958e+00     8.19784e+00
O       1.00301e+01    -3.27444e+00    -3.96835e+00
H       9.05573e+00    -3.40716e+00    -4.21149e+00
H       1.01272e+01    -3.42855e+00    -3.01481e+00
O      -1.58188e+00     3.05444e-01     1.01619e+01
H      -1.00151e+00    -2.88815e-02     9.39085e+00
H      -8.91046e-01     3.60501e-01     1.08561e+01
O       1.12153e+01    -9.91025e-01     1.33176e+01
H       1.03311e+01    -8.42672e-01     1.36545e+01
H       1.11200e+01    -1.51041e+00     1.24708e+01
O       1.28871e+01    -2.04115e+00     5.58037e+00
H       1.34193e+01    -1.90602e+00     4.78779e+00
H       1.19561e+01    -2.23285e+00     5.22415e+00
O      -6.08842e+00     4.72158e-01     9.89551e+00
H      -5.21243e+00    -3.21249e-02     9.81655e+00
H      -6.80973e+00    -2.32908e-01     1.00769e+01
O      -5.27425e+00    -3.69691e+00     7.23818e+00
H      -4.89027e+00    -3.61463e+00     8.10965e+00
H      -6.20173e+00    -3.41769e+00     7.21730e+00
O      -9.15309e+00    -2.71634e+00    -5.21876e+00
H      -9.09886e+00    -3.58847e+00    -4.75205e+00
H      -9.81488e+00    -2.20223e+00    -4.59359e+00
O      -8.91788e+00    -5.46058e+00    -1.32599e+00
H      -8.35675e+00    -6.19997e+00    -1.54001e+00
H      -8.31466e+00    -4.83939e+00    -7.92155e-01
O      -9.95263e+00     4.65432e+00    -1.66175e+00
H      -1.08262e+01     4.87884e+00    -2.00079e+00
H      -9.73549e+00     3.70090e+00    -1.91939e+00
O       3.58234e+00     5.41857e+00     6.92448e-01
H       2.97706e+00     4.91276e+00     1.29957e-01
H       4.37006e+00     5.04545e+00     3.31974e-01
O       1.26693e+01     1.17183e+00    -7.14534e-01
H       1.27271e+01     5.40741e-01    -4.10620e-03
H       1.22023e+01     1.91432e+00    -3.02945e-01
O       1.44240e+00    -2.54049e+00     2.38417e+00
H       1.09348e+00    -1.60636e+00     2.31302e+00
H       2.38346e+00    -2.54495e+00     2.29522e+00
O      -4.69549e+00     1.19664e+01    -4.03883e+00
H      -3.70816e+00     1.19964e+01    -3.75181e+00
H      -4.62405e+00     1.22613e+01    -4.97836e+00
O      -1.90108e+00     5.77663e+00    -2.58253e+00
H      -1.91920e+00     5.06898e+00    -3.27905e+00
H      -2.02883e+00     6.67709e+00    -2.92212e+00
O      -1.05360e+01     9.36386e+00     2.98385e+00
H      -1.06314e+01     9.27375e+00     3.97436e+00
H      -1.11423e+01     8.72844e+00     2.51870e+00
O      -6.11346e+00     5.76047e+00    -3.06518e+00
H      -5.54919e+00     6.45143e+00    -2.77128e+00
H      -7.00719e+00     6.23828e+00    -3.31166e+00
O      -1.14115e+01     1.25549e+01    -1.57166e+00
H      -1.05259e+01     1.24093e+01    -1.90429e+00
H      -1.12548e+01     1.27513e+01    -6.11194e-01
O       1.03828e+01    -1.05750e+01     9.38255e+00
H       9.93039e+00    -9.71117e+00     9.27822e+00
H       1.10037e+01    -1.06140e+01     8.62740e+00
O       2.42803e+00     9.74795e+00     9.18874e+00
H       3.27768e+00     1.02090e+01     9.42480e+00
H       1.80314e+00     1.05144e+01     8.80681e+00
O       6.00582e+00    -5.31022e+00     2.35813e+00
H       5.05804e+00    -5.52349e+00     2.61978e+00
H       6.00721e+00    -4.66818e+00     1.66791e+00
O       1.04185e+01    -2.13439e+00     1.10865e+01
H       1.03149e+01    -1.47570e+00     1.03129e+01
H       1.06605e+01    -3.01433e+00     1.06929e+01
O      -1.22133e+01     5.62040e-02     7.31847e+00
H      -1.15626e+01     1.58469e-01     8.03514e+00
H      -1.18374e+01    -7.00123e-01     6.80382e+00
O      -1.20619e+01     2.80314e+00    -4.01619e+00
H      -1.11382e+01     2.69115e+00    -3.72614e+00
H      -1.25821e+01     2.02918e+00    -3.66633e+00
O      -9.99733e+00     7.05825e+00     1.11044e+01
H      -1.01952e+01     6.33423e+00     1.16538e+01
H      -9.31240e+00     6.77137e+00     1.04676e+01
O       9.09292e+00    -8.79575e+00     1.26901e+01
H       8.46598e+00    -8.79071e+00     1.19451e+01
H       9.72359e+00    -9.55354e+00     1.24210e+01
O       1.09854e+01    -6.98206e+00     9.02232e+00
H       1.17630e+01    -6.88753e+00     8.41840e+00
H       1.09414e+01    -6.06196e+00     9.43958e+00
O       9.25037e+00    -2.65481e+00     7.04404e+00
H       9.40932e+00    -3.59647e+00     7.29168e+00
H       9.55580e+00    -2.13946e+00     7.77310e+00
O      -2.46413e+00     7.42183e+00     5.32677e+00
H      -3.07714e+00     8.15709e+00     4.97317e+00
H      -1.68517e+00     7.86578e+00     5.83913e+00
O      -1.02786e+01    -1.09838e+01     8.99136e+00
H      -9.46892e+00    -1.06482e+01     8.47400e+00
H      -1.03297e+01    -1.01498e+01     9.59298e+00
O      -6.31644e+00     1.77140e+00     7.64388e+00
H      -7.02529e+00     2.49599e+00     7.58121e+00
H      -6.43258e+00     1.32118e+00     8.47577e+00
O      -1.43898e+00     1.39087e+01    -9.39746e+00
H      -1.61111e+00     1.48832e+01    -9.26437e+00
H      -1.88047e+00     1.36917e+01    -1.02329e+01
O       6.19376e-01    -6.90134e+00     5.54849e+00
H      -6.90936e-02    -6.22958e+00     5.72124e+00
H       1.45098e+00    -6.38902e+00     5.61763e+00
O       1.03035e+01    -6.22871e+00    -1.17710e+01
H       9.68731e+00    -7.03058e+00    -1.17941e+01
H       1.11635e+01    -6.61770e+00    -1.17057e+01
O      -2.92199e+00     2.61371e+00     9.88037e+00
H      -3.71582e+00     2.67886e+00     1.04446e+01
H      -2.45921e+00     1.79313e+00     1.01334e+01
O       7.91863e+00    -1.20893e+01     6.14734e+00
H       7.92514e+00    -1.21574e+01     7.10086e+00
H       8.80485e+00    -1.25582e+01     5.89983e+00
O       3.36575e+00     7.85024e+00     7.88171e+00
H       4.04827e+00     8.10208e+00     7.21595e+00
H       2.90282e+00     8.64309e+00     8.33724e+00
O       5.67730e+00    -9.84037e+00    -4.68456e+00
H       5.44281e+00    -1.01919e+01    -5.56956e+00
H       4.90205e+00    -9.34415e+00    -4.32407e+00
O      -9.70518e-02    -5.17215e-02     7.84974e+00
H       4.22892e-01    -7.94500e-01     7.37908e+00
H       3.87354e-01     7.63035e-01     7.65611e+00
O      -2.55199e+00     8.24894e+00    -8.26896e+00
H      -3.18770e+00     8.69197e+00    -8.84122e+00
H      -2.23503e+00     7.42467e+00    -8.69985e+00
O       1.24792e+00     1.06998e+01     2.23425e+00
H       7.78337e-01     9.97138e+00     2.66234e+00
H       2.16245e+00     1.03167e+01     2.08966e+00
O      -1.59537e+00     5.58081e+00    -8.68031e+00
H      -7.70417e-01     5.89888e+00    -9.22480e+00
H      -2.31312e+00     5.24365e+00    -9.34619e+00
O       3.66646e+00    -6.25167e+00     2.76228e+00
H       2.85568e+00    -6.34252e+00     2.19757e+00
H       4.06513e+00    -7.19968e+00     2.89110e+00
O       3.99045e+00     3.58425e+00    -2.87823e+00
H       3.70117e+00     4.48536e+00    -3.19684e+00
H       4.16480e+00     3.09951e+00    -3.75639e+00
O       2.73684e+00     6.18119e+00    -8.30181e+00
H       2.96339e+00     7.16220e+00    -8.24468e+00
H       3.29824e+00     5.84415e+00    -9.04450e+00
O      -4.59851e+00    -4.63812e+00     9.75351e+00
H      -3.81074e+00    -4.98464e+00     9.26385e+00
H      -4.28965e+00    -4.06688e+00     1.04427e+01
O      -7.58817e+00     3.33771e-01     7.85611e-03
H      -7.33262e+00     1.28965e+00    -1.46232e-01
H      -8.23016e+00     4.92263e-02    -6.44858e-01
O      -6.55430e+00    -5.92607e+00    -8.90615e+00
H      -6.86302e+00    -6.07394e+00    -9.89162e+00
H      -6.94579e+00    -6.67675e+00    -8.44747e+00
O      -1.24603e+00    -1.04819e+01     7.18029e+00
H      -4.57172e-01    -9.89550e+00     7.34964e+00
H      -2.03474e+00    -9.90411e+00     7.21692e+00
O       1.22883e+01    -7.83748e+00     1.22779e-01
H       1.24108e+01    -8.66084e+00     6.86467e-01
H       1.15628e+01    -7.30686e+00     5.95277e-01
O      -4.87567e+00    -2.89793e-02    -9.54535e+00
H      -4.77957e+00     8.14136e-01    -1.00159e+01
H      -5.67142e+00     2.32218e-01    -8.98706e+00
O       6.28285e+00     1.14170e+00     3.04200e+00
H       7.21596e+00     1.45308e+00     2.86075e+00
H       5.94913e+00     1.61961e+00     3.80181e+00
O       8.80997e-01    -5.32168e+00    -7.23954e+00
H       1.58180e-01    -5.37774e+00    -6.56047e+00
H       1.24074e+00    -6.20631e+00    -7.44010e+00
O      -3.36218e+00    -6.35919e+00    -2.24131e+00
H      -3.36729e+00    -7.36420e+00    -2.52395e+00
H      -3.97614e+00    -6.58522e+00    -1.49828e+00
O       1.03861e+01     7.07287e+00    -4.08674e+00
H       9.44421e+00     6.83740e+00    -3.80142e+00
H       1.10629e+01     6.50598e+00    -3.58295e+00
O       7.93374e+00     3.80312e+00    -2.26002e+00
H       7.13498e+00     4.03761e+00    -1.71033e+00
H       7.93409e+00     2.79836e+00    -2.41394e+00
O      -5.82466e+00     8.70096e+00     1.94135e-01
H      -5.46713e+00     8.51801e+00    -7.37874e-01
H      -5.03032e+00     8.70851e+00     7.55184e-01
O       6.26898e+00    -1.78188e+00    -6.10653e+00
H       6.17198e+00    -2.24517e+00    -6.97499e+00
H       5.27603e+00    -1.82962e+00    -5.85436e+00
O       6.96714e+00    -1.53781e+00     3.21966e+00
H       6.64257e+00    -6.29330e-01     3.39859e+00
H       7.34244e+00    -1.49509e+00     2.34151e+00
O      -9.70141e+00    -6.59728e-02    -1.90087e+00
H      -1.04904e+01     4.51417e-01    -1.63318e+00
H      -9.97050e+00    -6.66551e-01    -2.63651e+00
O       7.45883e+00     4.90351e-01    -5.47255e+00
H       7.10457e+00    -4.09876e-01    -5.58587e+00
H       6.81679e+00     1.12348e+00    -5.80477e+00
O      -8.87449e+00    -1.00188e+01    -1.20242e+00
H      -8.73800e+00    -1.08344e+01    -1.68241e+00
H      -9.76413e+00    -9.64293e+00    -1.32658e+00
O      -1.48261e+00    -3.44918e-01     3.74399e-01
H      -1.46736e+00    -6.62979e-01    -5.72884e-01
H      -1.79192e+00    -1.18060e+00     9.27489e-01
O       4.85023e+00    -1.05542e+01     6.22143e+00
H       5.11940e+00    -9.63718e+00     6.09182e+00
H       5.57636e+00    -1.09762e+01     6.77367e+00
O       7.42340e+00     9.33865e+00    -5.32980e-01
H       6.47683e+00     9.36043e+00    -9.17801e-01
H       8.00650e+00     9.91277e+00    -1.05149e+00
O      -5.80870e+00    -1.02419e+01    -1.26290e+01
H      -6.19412e+00    -1.10302e+01    -1.30445e+01
H      -5.10284e+00    -1.04919e+01    -1.20084e+01
O       1.44477e+00     4.86676e-01    -8.89675e+00
H       1.46473e+00     1.33593e+00    -9.38056e+00
H       7.46520e-01    -2.21382e-02    -9.32448e+00
O      -2.39222e+00    -8.07947e+00    -5.76248e+00
H      -1.74377e+00    -7.34576e+00    -5.44921e+00
H      -2.05318e+00    -8.87547e+00    -5.32105e+00
O      -4.35551e+00     1.25553e+01    -6.62287e+00
H      -4.55892e+00     1.34905e+01    -6.78545e+00
H      -3.40015e+00     1.24386e+01    -6.82939e+00
O       9.22453e+00     2.07658e+00     2.68700e+00
H       9.94878e+00     2.00793e+00     2.07918e+00
H       9.33299e+00     2.92249e+00     3.15488e+00
O      -9.69109e+00    -4.17101e+00     1.31160e+01
H      -1.01851e+01    -4.10284e+00     1.39437e+01
H      -9.19443e+00    -3.32016e+00     1.29478e+01
O      -1.13601e+01    -4.47400e+00     2.43419e+00
H      -1.22650e+01    -4.23349e+00     2.29174e+00
H      -1.10996e+01    -5.14328e+00     1.76411e+00
O      -5.48143e+00     2.62998e+00     1.11097e+01
H      -5.98665e+00     1.81786e+00     1.07943e+01
H      -5.34047e+00     2.54857e+00     1.20633e+01
O       7.30661e+00     3.86003e+00     1.20388e+01
H       8.22719e+00     3.64499e+00     1.16916e+01
H       6.75366e+00     4.17375e+00     1.12538e+01
O       6.60067e+00    -4.05075e+00     2.48704e-02
H       7.29367e+00    -4.72885e+00    -1.07457e-01
H       6.97753e+00    -3.12367e+00     1.58600e-01
O       1.35120e+01     3.23828e+00    -8.51943e+00
H       1.36974e+01     4.12659e+00    -8.21089e+00
H       1.30897e+01     2.76097e+00    -7.69274e+00
O       9.38066e+00     7.27635e+00    -4.62910e-02
H       8.57237e+00     7.83683e+00    -8.17805e-02
H       9.61026e+00     7.19882e+00     9.25653e-01
O       6.04544e+00     1.35984e+01     8.51482e+00
H       6.68322e+00     1.29741e+01     8.96009e+00
H       5.26152e+00     1.36876e+01     9.16163e+00
O      -9.41048e+00    -6.59515e+00     9.33403e+00
H      -9.53676e+00    -7.32337e+00     9.97694e+00
H      -8.50759e+00    -6.53756e+00     9.10174e+00
O       1.03793e+01    -2.08940e+00     4.96463e-01
H       1.10072e+01    -1.43514e+00     8.48946e-01
H       1.03395e+01    -2.77262e+00     1.23082e+00
O      -4.51732e-01     2.14016e+00     3.43449e+00
H      -6.05096e-01     2.88661e+00     2.76261e+00
H      -9.08522e-01     2.41560e+00     4.29278e+00
O       1.06246e+01     9.37320e+00     8.05261e+00
H       1.07708e+01     9.92181e+00     8.86701e+00
H       1.14455e+01     8.93337e+00     7.86212e+00
O      -6.19488e+00    -1.04150e+01    -3.67288e+00
H      -5.74908e+00    -1.12290e+01    -3.47299e+00
H      -5.49084e+00    -9.74332e+00    -3.79432e+00
O      -9.71690e+00     9.64751e+00     8.12650e+00
H      -9.61795e+00     1.00634e+01     8.97936e+00
H      -1.05453e+01     9.22211e+00     7.98429e+00
O       2.71957e+00    -9.77478e+00     2.79114e+00
H       2.43998e+00    -1.06597e+01     3.02096e+00
H       2.03921e+00    -9.23834e+00     3.15467e+00
O      -5.11933e+00    -1.00785e+01    -1.12804e+00
H      -5.56044e+00    -1.04738e+01    -1.84922e+00
H      -5.08787e+00    -1.07723e+01    -4.14339e-01
O      -1.79355e-01     1.16548e+01     1.24395e-01
H      -3.25509e-02     1.26019e+01     2.11270e-01
H       4.54851e-01     1.11646e+01     7.18540e-01
O       1.02236e+01    -7.77382e-01     8.74735e+00
H       9.71985e+00    -2.03409e-01     8.11856e+00
H       1.11269e+01    -7.04701e-01     8.37874e+00
O       1.96139e+00     4.59098e+00    -6.28220e+00
H       2.15242e+00     5.35720e+00    -6.92146e+00
H       1.06053e+00     4.33357e+00    -6.52152e+00
O      -1.19527e+01     1.62629e+00    -6.42205e+00
H      -1.28810e+01     1.31269e+00    -6.51974e+00
H      -1.19812e+01     2.14822e+00    -5.60402e+00
O      -8.91897e+00     1.14294e+01     1.01890e+01
H      -9.47678e+00     1.21695e+01     9.84697e+00
H      -9.14487e+00     1.12735e+01     1.11555e+01
O      -5.12992e+00     1.26720e+01     5.71234e-01
H      -5.84591e+00     1.19719e+01     5.54039e-01
H      -4.26610e+00     1.22922e+01     7.98485e-01
O       1.20437e+01     8.28926e+00    -1.07304e+01
H       1.17139e+01     7.30797e+00    -1.07265e+01
H       1.13278e+01     8.94615e+00    -1.04847e+01
O      -1.12710e-01     1.08172e+00    -6.62542e+00
H       4.57196e-01     8.02551e-01    -5.88724e+00
H       4.81395e-01     1.02062e+00    -7.37659e+00
O       1.21595e+01    -7.92772e+00     1.12135e+01
H       1.15627e+01    -7.87747e+00     1.04355e+01
H       1.27140e+01    -7.07849e+00     1.11133e+01
O       6.21152e+00     4.66784e+00     9.76040e+00
H       5.89268e+00     3.73637e+00     9.59319e+00
H       5.40398e+00     5.22799e+00     9.80849e+00
O      -5.05196e+00    -6.00778e-01    -7.90604e-01
H      -5.93380e+00    -4.22859e-01    -5.01054e-01
H      -4.88803e+00    -1.53336e+00    -1.01042e+00
O      -1.54824e+00    -4.65906e+00    -3.05308e+00
H      -1.92664e+00    -3.77305e+00    -3.04413e+00
H      -2.20365e+00    -5.24940e+00    -2.70168e+00
O       1.03071e+01     4.21944e-01     4.70598e+00
H       9.95445e+00     8.66725e-01     3.87247e+00
H       1.13366e+01     4.06489e-01     4.62898e+00
O       1.29386e+01     3.44450e+00     2.86139e+00
H       1.24963e+01     3.85662e+00     3.62473e+00
H       1.38020e+01     3.78778e+00     2.89564e+00
O      -4.39678e+00     1.10961e+01    -1.22358e+01
H      -3.98920e+00     1.03732e+01    -1.27462e+01
H      -5.10259e+00     1.14277e+01    -1.27899e+01
O       7.25375e+00    -7.60127e+00     1.76984e+00
H       7.16384e+00    -6.59682e+00     1.88817e+00
H       6.45151e+00    -7.97404e+00     2.15084e+00
O       5.77110e+00     1.11423e+01    -6.73906e+00
H       6.17519e+00     1.09556e+01    -7.58296e+00
H       6.50784e+00     1.10700e+01    -6.10183e+00
O      -3.42328e+00    -3.86042e+00    -8.98164e+00
H      -2.99710e+00    -2.98574e+00    -8.93760e+00
H      -4.38495e+00    -3.69652e+00    -8.82104e+00
O       6.36607e+00    -3.50956e-01    -1.10959e+01
H       5.83557e+00     5.11376e-01    -1.11176e+01
H       5.67444e+00    -1.05365e+00    -1.07140e+01
O       3.20898e+00    -6.01160e-01     4.81021e+00
H       3.02948e+00     3.82371e-01     4.69573e+00
H       2.68228e+00    -8.36237e-01     5.58493e+00
O       2.64900e+00    -4.61375e+00    -3.05176e+00
H       2.83163e+00    -4.43859e+00    -3.99510e+00
H       2.05412e+00    -3.87367e+00    -2.73312e+00
O       7.63220e+00     7.35173e+00     5.45569e+00
H       8.02322e+00     7.99790e+00     4.81790e+00
H       8.21992e+00     7.46433e+00     6.27841e+00
O      -9.19498e+00    -9.81888e+00     5.00161e+00
H      -9.02840e+00    -9.14104e+00     4.28357e+00
H      -1.01373e+01    -9.63731e+00     5.06886e+00
O       5.94836e+00     8.58372e+00    -3.39828e+00
H       5.29318e+00     8.24211e+00    -4.00435e+00
H       6.41959e+00     9.31511e+00    -3.90679e+00
O      -9.28134e+00    -7.05576e-01    -9.23271e+00
H      -8.66651e+00    -9.36518e-01    -8.50607e+00
H      -1.01941e+01    -9.90510e-01    -8.95861e+00
O      -1.94041e+00    -2.50610e+00     1.20606e+01
H      -1.37161e+00    -2.13405e+00     1.27678e+01
H      -1.42749e+00    -3.32552e+00     1.17621e+01
O      -8.50421e+00    -1.53035e+00    -1.17335e+01
H      -7.55591e+00    -1.56398e+00    -1.15246e+01
H      -8.99358e+00    -1.29873e+00    -1.09111e+01
O       4.64676e-01     4.20611e-01     1.21216e+01
H       2.36280e-01    -3.48765e-01     1.25910e+01
H       1.19488e+00     1.22668e-01     1.16179e+01
O       8.92082e+00     9.11157e+00     3.97897e+00
H       8.44139e+00     9.78097e+00     3.45217e+00
H       9.60186e+00     9.69064e+00     4.42754e+00
O       2.90649e+00    -4.45532e+00    -5.75677e+00
H       2.07024e+00    -4.70992e+00    -6.24958e+00
H       3.66917e+00    -4.95860e+00    -6.11567e+00
O      -5.75287e+00    -1.15372e+01     4.51167e+00
H      -5.93148e+00    -1.08850e+01     3.76585e+00
H      -4.89152e+00    -1.20799e+01     4.28240e+00
O       5.23976e+00    -2.53213e-01     1.10845e+01
H       5.78408e+00    -4.40815e-01     1.19156e+01
H       5.45598e+00    -9.36643e-01     1.04250e+01
O       8.10544e+00    -8.72540e+00    -4.69017e+00
H       7.17251e+00    -8.98786e+00    -4.51972e+00
H       7.98015e+00    -7.75761e+00    -4.88075e+00
O      -5.95336e+00     5.14037e+00     1.11396e+01
H      -6.24129e+00     5.21888e+00     1.20557e+01
H      -5.85441e+00     4.19609e+00     1.08735e+01
O      -1.66207e+00    -5.54578e+00     1.14995e+01
H      -2.53143e+00    -5.71832e+00     1.19421e+01
H      -1.83394e+00    -5.47711e+00     1.05079e+01
O       5.27758e+00    -5.39114e+00    -6.79194e+00
H       5.18497e+00    -6.07048e+00    -7.47749e+00
H       5.75922e+00    -4.64813e+00    -7.12931e+00
O      -6.68281e+00     2.72788e+00    -1.34681e-01
H      -5.91388e+00     2.81419e+00     4.91999e-01
H      -7.30550e+00     3.46055e+00     1.17897e-02
O      -2.28846e+00    -5.96567e+00     8.89059e+00
H      -2.46582e+00    -6.90312e+00     8.91902e+00
H      -2.14328e+00    -5.66534e+00     7.92614e+00
O       7.53318e+00     4.68213e+00     5.30403e+00
H       7.53029e+00     5.69713e+00     5.23279e+00
H       7.92646e+00     4.53356e+00     6.18399e+00
O      -2.68800e+00    -5.07612e-02     7.13434e+00
H      -1.75555e+00     1.89781e-02     7.42601e+00
H      -2.99900e+00     8.40676e-01     6.99310e+00
O      -7.54544e+00     7.72698e+00    -7.68826e+00
H      -8.06177e+00     8.58820e+00    -7.62313e+00
H      -7.19240e+00     7.70008e+00    -8.63197e+00
O       9.13693e+00    -2.67635e+00    -8.53337e+00
H       9.00425e+00    -1.96205e+00    -9.11155e+00
H       9.65572e+00    -3.37468e+00    -9.11386e+00
O      -1.68244e+00    -8.19960e+00    -8.67647e+00
H      -2.50254e+00    -7.77410e+00    -8.95066e+00
H      -1.73206e+00    -8.25841e+00    -7.74978e+00
O       7.77853e+00    -1.72316e+00     5.11174e-01
H       8.77539e+00    -1.77778e+00     4.65195e-01
H       7.46755e+00    -9.73074e-01    -5.21744e-02
O       7.44521e+00     1.04196e+01    -8.74524e+00
H       7.87654e+00     1.13724e+01    -8.76527e+00
H       7.95796e+00     9.83705e+00    -8.15443e+00
O       4.93177e-01     8.93491e+00     1.07558e+01
H       1.29471e+00     9.13684e+00     1.02682e+01
H      -3.09950e-01     9.06985e+00     1.01834e+01
O      -4.14537e-01     2.97647e+00    -1.17430e+01
H      -1.45835e-01     3.38259e+00    -1.25608e+01
H      -1.73023e-01     2.02996e+00    -1.19270e+01
O       3.78533e+00     9.75114e+00     2.21558e+00
H       4.37050e+00     1.05205e+01     2.13997e+00
H       3.66606e+00     9.62565e+00     3.19343e+00
O      -2.39990e+00     8.38396e+00    -3.34754e+00
H      -2.49322e+00     8.59104e+00    -4.30222e+00
H      -1.86870e+00     9.04416e+00    -2.87771e+00
O      -1.29149e+01    -9.09162e+00     3.01128e+00
H      -1.24765e+01    -8.82475e+00     3.81159e+00
H      -1.38701e+01    -8.80410e+00     3.07533e+00
O      -1.05639e+01     1.28419e+01     1.00213e+00
H      -1.12982e+01     1.27234e+01     1.65312e+00
H      -1.00710e+01     1.20011e+01     1.15857e+00
O       7.68654e+00     6.49992e+00    -3.42033e+00
H       7.24750e+00     7.30694e+00    -3.10957e+00
H       7.58830e+00     5.95133e+00    -2.61116e+00
O      -4.86369e+00    -6.03933e+00    -4.89910e+00
H      -4.30630e+00    -5.35027e+00    -5.28347e+00
H      -4.42663e+00    -6.22513e+00    -3.99642e+00
O       1.04518e+01     1.01013e+01     1.05348e+01
H       1.01544e+01     1.07560e+01     1.12667e+01
H       1.13358e+01     9.73872e+00     1.08207e+01
O       6.71115e+00     2.77089e+00    -8.95182e+00
H       7.69683e+00     2.59966e+00    -9.10091e+00
H       6.26361e+00     2.61158e+00    -9.84776e+00
O       1.36970e+00    -6.34085e+00     1.07733e+00
H       8.57717e-01    -6.82302e+00     1.73606e+00
H       8.97890e-01    -5.54954e+00     9.55119e-01
O       6.59380e+00    -3.31984e+00    -8.23188e+00
H       6.30578e+00    -2.96451e+00    -9.09772e+00
H       7.59340e+00    -3.35075e+00    -8.21988e+00
O      -9.22224e+00    -7.70487e+00     3.53295e+00
H      -8.54714e+00    -7.07555e+00     3.85177e+00
H      -9.17576e+00    -7.59075e+00     2.55094e+00
O      -6.16310e+00     2.98834e+00    -2.63837e+00
H      -6.18072e+00     3.16273e+00    -1.65220e+00
H      -5.98173e+00     3.82645e+00    -3.08376e+00
O      -4.61959e+00     1.03051e+00    -6.47095e+00
H      -5.43984e+00     7.40205e-01    -6.93616e+00
H      -3.90124e+00     3.12551e-01    -6.47207e+00
O       1.15186e+01     3.31243e+00    -1.01932e+01
H       1.22667e+01     3.33248e+00    -9.55196e+00
H       1.12993e+01     4.27142e+00    -1.03064e+01
O      -4.13220e+00     9.10192e+00     4.39278e+00
H      -5.05884e+00     8.92113e+00     4.75521e+00
H      -3.99004e+00     1.00909e+01     4.44406e+00
O      -8.73664e+00    -3.93599e+00     4.62462e+00
H      -9.50665e+00    -4.46569e+00     4.87820e+00
H      -9.18097e+00    -3.18825e+00     4.13627e+00
O      -1.10782e+01    -1.12170e+01    -4.43159e+00
H      -1.01199e+01    -1.10652e+01    -4.38990e+00
H      -1.14516e+01    -1.09810e+01    -3.57029e+00
O       8.69327e+00    -1.19062e+01    -8.55525e+00
H       8.79113e+00    -1.15168e+01    -7.63121e+00
H       8.28998e+00    -1.11789e+01    -9.11379e+00
O       4.21448e+00    -2.08904e+00     2.70897e+00
H       4.00193e+00    -1.50965e+00     3.43862e+00
H       5.19925e+00    -1.90580e+00     2.64334e+00
O       1.35647e-01    -7.61994e+00    -1.28961e+01
H      -4.58814e-01    -6.85394e+00    -1.27006e+01
H       4.81414e-01    -7.46861e+00    -1.37965e+01
O       9.09535e-01     1.03191e+01    -9.60569e+00
H       1.13424e+00     1.12676e+01    -9.45914e+00
H       1.76831e+00     9.87396e+00    -9.38208e+00
O      -1.74085e-01     4.40565e+00     7.27313e+00
H       4.92620e-01     3.70232e+00     7.26118e+00
H       3.60016e-01     5.16608e+00     7.18215e+00
O      -2.38903e+00    -2.87224e-01    -6.04395e+00
H      -1.56537e+00     2.28590e-01    -6.25728e+00
H      -2.21644e+00    -8.47887e-01    -5.27245e+00
O       2.90670e+00     2.04347e+00     9.40320e+00
H       2.66704e+00     1.17787e+00     9.81645e+00
H       2.56909e+00     2.85316e+00     9.87525e+00
O       1.39948e+01     7.74468e+00    -9.14516e+00
H       1.31294e+01     8.12463e+00    -9.61384e+00
H       1.45772e+01     8.44100e+00    -9.55798e+00
O       8.62487e+00    -4.19488e+00     1.17964e+01
H       9.10817e+00    -3.32645e+00     1.16888e+01
H       9.29783e+00    -4.88549e+00     1.19855e+01
O       6.21081e+00     5.38813e+00    -5.81471e+00
H       6.95184e+00     5.50258e+00    -5.16125e+00
H       6.60959e+00     5.58604e+00    -6.71420e+00
O       1.24046e+00    -2.73081e+00    -1.36895e+00
H       2.07805e+00    -2.65706e+00    -8.31749e-01
H       1.11966e+00    -1.82216e+00    -1.72693e+00
O       3.23950e+00     1.47747e+01     5.54503e-02
H       3.79160e+00     1.39885e+01    -1.49362e-01
H       3.21024e+00     1.48238e+01     1.05213e+00
O      -8.05510e+00     4.03363e+00     7.69530e+00
H      -8.75112e+00     3.61919e+00     8.22798e+00
H      -8.30110e+00     4.14472e+00     6.75464e+00
O       5.11396e+00    -7.92626e+00     1.10683e+01
H       4.55886e+00    -8.70404e+00     1.06593e+01
H       6.04667e+00    -8.22881e+00     1.11135e+01
O       1.25834e+01    -7.17901e-01     1.24638e+00
H       1.25777e+01    -1.83403e-01     2.08889e+00
H       1.34284e+01    -1.20424e+00     1.21542e+00
O      -2.17263e+00    -1.23542e+01    -3.37247e+00
H      -1.57060e+00    -1.31166e+01    -3.12008e+00
H      -2.35542e+00    -1.19199e+01    -2.54746e+00
O       1.92579e+00     2.39838e-01    -4.88837e+00
H       2.52746e+00     1.04169e+00    -5.01946e+00
H       2.00313e+00     2.33167e-01    -3.88951e+00
O      -2.10334e+00     1.19930e+01     8.73126e+00
H      -1.66172e+00     1.26344e+01     8.06397e+00
H      -1.71553e+00     1.22989e+01     9.58274e+00
O       1.19273e+01    -1.18614e+01     2.60491e+00
H       1.20199e+01    -1.09531e+01     2.87956e+00
H       1.11591e+01    -1.21159e+01     2.05829e+00
O      -8.38561e+00     4.65675e+00     6.52024e-01
H      -8.01748e+00     5.56214e+00     9.47120e-01
H      -8.99669e+00     4.74701e+00    -1.39742e-01
O      -8.39513e+00    -1.23903e+01     4.66664e+00
H      -7.44524e+00    -1.21676e+01     4.60809e+00
H      -8.75713e+00    -1.14512e+01     4.72809e+00
O      -7.61663e-01     3.88205e+00    -6.67202e+00
H      -7.84649e-01     2.91523e+00    -6.80103e+00
H      -1.09746e+00     4.23160e+00    -7.51200e+00
O       5.10755e+00    -9.94138e+00    -9.43398e+00
H       4.55462e+00    -1.02273e+01    -1.02299e+01
H       6.01759e+00    -1.01012e+01    -9.83832e+00
O      -3.37791e-01     8.67462e+00     3.21988e+00
H      -7.27914e-01     8.19876e+00     2.48602e+00
H       3.71599e-01     8.11128e+00     3.61962e+00
O       9.64488e+00     1.17536e+01     1.25677e+01
H       1.03342e+01     1.25347e+01     1.25991e+01
H       9.73855e+00     1.11533e+01     1.33807e+01
O       8.81911e+00    -8.42893e+00     8.49856e+00
H       9.33894e+00    -7.57416e+00     8.47637e+00
H       8.58316e+00    -8.69701e+00     7.60857e+00
O       1.60187e+00    -1.19868e+01     3.85183e+00
H       1.40703e+00    -1.27535e+01     3.24425e+00
H       2.49433e+00    -1.21746e+01     4.22847e+00
O       3.99831e+00    -5.47145e+00    -9.39236e-01
H       4.02600e+00    -4.53689e+00    -5.26079e-01
H       3.35804e+00    -5.38563e+00    -1.69492e+00
O      -1.02114e+01    -1.34706e+01    -1.19773e+01
H      -1.07243e+01    -1.26327e+01    -1.19272e+01
H      -1.07217e+01    -1.40704e+01    -1.24986e+01
O      -2.12210e+00     4.88407e+00     8.84261e+00
H      -1.41477e+00     4.38778e+00     8.31402e+00
H      -2.63223e+00     4.16484e+00     9.24133e+00
O      -4.49494e+00    -9.02897e+00    -7.34434e+00
H      -4.34418e+00    -8.71700e+00    -8.29191e+00
H      -4.00322e+00    -8.45066e+00    -6.79177e+00
O      -4.95680e+00     9.26420e-01    -3.71919e+00
H      -5.05324e+00     1.13911e+00    -4.67564e+00
H      -5.44691e+00     1.68346e+00    -3.19931e+00
O      -3.94305e+00     6.46825e+00     7.46981e+00
H      -3.31490e+00     6.91471e+00     6.88220e+00
H      -3.27727e+00     5.83607e+00     7.84109e+00
O      -9.27491e+00     7.95444e-01    -6.71376e+00
H      -9.09324e+00     1.66434e+00    -6.30669e+00
H      -1.02599e+01     8.03038e-01    -6.71488e+00
O       6.63546e+00     6.00238e+00    -1.06834e+01
H       7.13512e+00     5.46120e+00    -1.13462e+01
H       6.87131e+00     6.96499e+00    -1.07504e+01
O       1.53113e+00     2.22634e+00     7.24227e+00
H       2.23625e+00     2.01776e+00     7.98119e+00
H       1.95292e+00     2.15645e+00     6.38663e+00
O      -8.96654e+00     1.13401e+01     2.34141e+00
H      -9.56477e+00     1.05517e+01     2.54622e+00
H      -8.77562e+00     1.17640e+01     3.19248e+00
O       2.87243e+00     1.40143e+01    -1.08788e+01
H       2.25369e+00     1.37575e+01    -1.00960e+01
H       2.44108e+00     1.49426e+01    -1.10078e+01
O       9.47645e-01     1.03849e+01     5.86949e+00
H       8.44823e-01     1.10794e+01     5.14340e+00
H       1.86101e+00     1.01197e+01     5.69545e+00
O       5.21957e+00     1.68435e+00     4.28439e-01
H       4.26387e+00     1.52305e+00     2.24672e-01
H       5.35642e+00     1.68641e+00     1.38930e+00
O       8.49890e+00    -9.24323e+00     6.01287e+00
H       8.16391e+00    -1.01605e+01     5.93545e+00
H       8.97928e+00    -9.03000e+00     5.19702e+00
O       8.28199e+00     4.84330e+00     8.05188e+00
H       7.53122e+00     4.82941e+00     8.71530e+00
H       8.61235e+00     5.84703e+00     8.11695e+00
O       6.69991e+00    -1.17389e+01    -3.01785e+00
H       6.21580e+00    -1.11082e+01    -3.62088e+00
H       7.50070e+00    -1.12871e+01    -2.53579e+00
O       2.49266e+00    -1.06375e+01     7.62463e+00
H       3.29242e+00    -1.06932e+01     7.11435e+00
H       1.96612e+00    -9.80570e+00     7.38339e+00
O       6.24973e-01    -8.05849e+00     3.20842e+00
H       4.68205e-01    -7.73338e+00     4.06614e+00
H      -2.08218e-01    -8.41727e+00     2.86347e+00
O       6.65518e+00     7.23238e-02    -9.81094e-01
H       6.21015e+00     7.36794e-01    -4.62698e-01
H       7.19051e+00     5.01857e-01    -1.70086e+00
O      -1.01625e+01    -2.06784e+00    -3.75249e-02
H      -9.87467e+00    -1.36586e+00    -6.45981e-01
H      -9.33754e+00    -2.49451e+00     1.58245e-01
O      -4.69910e+00     1.18051e+01     8.58069e+00
H      -3.75444e+00     1.20301e+01     8.85005e+00
H      -4.65834e+00     1.08543e+01     8.31159e+00
O       1.13360e+01    -1.00807e+00    -4.43006e+00
H       1.12988e+01    -7.01176e-01    -5.34210e+00
H       1.07886e+01    -1.86381e+00    -4.42930e+00
O      -4.74855e+00     2.82918e+00     1.51916e+00
H      -3.94457e+00     2.86124e+00     1.01205e+00
H      -4.67154e+00     3.63630e+00     2.03955e+00
O       9.36729e+00     1.96516e+00    -8.92583e+00
H       1.01104e+01     2.39540e+00    -9.45736e+00
H       9.58863e+00     1.86962e+00    -7.97126e+00
O      -1.70090e+00     4.83865e+00    -1.18589e-01
H      -1.83819e+00     5.28465e+00    -1.04065e+00
H      -1.97989e+00     3.85346e+00    -2.49356e-01
O      -7.41060e+00    -7.80241e+00    -2.13316e+00
H      -7.38569e+00    -7.75965e+00    -3.12361e+00
H      -8.00175e+00    -8.54783e+00    -1.89421e+00
O      -4.86930e+00     9.02343e+00     8.28252e+00
H      -4.47751e+00     8.10732e+00     8.07778e+00
H      -5.80342e+00     8.91859e+00     8.02545e+00
O       4.84533e-02     4.37989e+00     1.89246e+00
H      -3.42289e-01     4.52555e+00     9.90276e-01
H      -6.09417e-01     4.86154e+00     2.46096e+00
O       1.12091e+01     2.91006e+00     8.21871e-01
H       1.18653e+01     3.18358e+00     1.49689e+00
H       1.07642e+01     3.73023e+00     4.36072e-01
O       1.52663e+00     1.37140e+01    -4.34977e+00
H       6.00500e-01     1.41398e+01    -4.28504e+00
H       2.21251e+00     1.42711e+01    -3.86730e+00
O      -5.18863e+00    -3.23787e+00    -1.70862e+00
H      -4.32022e+00    -3.50890e+00    -1.32155e+00
H      -4.98760e+00    -2.75505e+00    -2.52641e+00
O      -2.86125e-01     1.27892e+01     1.05551e+01
H      -1.44435e-01     1.23149e+01     1.13961e+01
H       3.41808e-01     1.25000e+01     9.90089e+00
O       4.83178e+00     1.36411e+01    -7.02520e+00
H       4.96415e+00     1.39372e+01    -7.96923e+00
H       5.22078e+00     1.27911e+01    -6.97699e+00
O       4.78524e+00    -7.21632e+00    -8.71920e+00
H       4.80725e+00    -6.84558e+00    -9.64646e+00
H       5.14244e+00    -8.15237e+00    -8.73211e+00
O      -8.37783e+00    -1.05504e+01    -7.74787e+00
H      -7.83700e+00    -1.12084e+01    -8.27349e+00
H      -8.31593e+00    -1.08411e+01    -6.75960e+00
O      -9.68199e+00    -9.57828e+00    -9.94654e+00
H      -1.04728e+01    -8.86490e+00    -9.91998e+00
H      -9.42470e+00    -9.74963e+00    -9.00056e+00
O       9.02920e+00     3.52812e+00    -5.23938e+00
H       8.28308e+00     3.68258e+00    -5.88552e+00
H       8.57226e+00     3.41219e+00    -4.38678e+00
O       5.40313e+00    -1.17349e+00     6.25212e+00
H       4.63672e+00    -1.08955e+00     5.62497e+00
H       5.71187e+00    -2.12294e+00     6.09038e+00
O      -6.82673e+00     3.42665e+00    -9.42769e+00
H      -7.62588e+00     2.87784e+00    -9.39758e+00
H      -6.49866e+00     3.56427e+00    -8.53867e+00
O       4.95241e+00    -8.62592e+00     2.93337e+00
H       4.24543e+00    -9.29181e+00     2.77712e+00
H       5.20702e+00    -8.60641e+00     3.91749e+00
O       1.44013e+01     9.17046e+00    -4.23925e+00
H       1.42222e+01     8.96190e+00    -5.22291e+00
H       1.47769e+01     8.35751e+00    -3.85712e+00
O      -3.73801e+00    -1.27219e+00     9.44177e+00
H      -3.11670e+00    -1.40078e+00     1.01747e+01
H      -3.24975e+00    -7.82130e-01     8.72467e+00
O      -2.69606e+00     2.21621e+00    -2.79067e-01
H      -2.67579e+00     1.96937e+00    -1.24155e+00
H      -2.28442e+00     1.41635e+00     2.35299e-01
O      -1.59036e+00    -9.65947e+00    -1.34201e+01
H      -9.09462e-01    -8.94750e+00    -1.31038e+01
H      -1.06593e+00    -1.04050e+01    -1.38090e+01
O       4.88659e+00     9.99220e+00    -1.26475e+00
H       4.31616e+00     9.29380e+00    -8.45790e-01
H       5.14776e+00     9.65806e+00    -2.12899e+00
O       1.36501e+01    -1.81472e+00    -3.42332e+00
H       1.35052e+01    -2.67596e+00    -2.98094e+00
H       1.28551e+01    -1.53006e+00    -3.87544e+00
O      -1.33409e+00     7.41010e+00     1.06509e+00
H      -1.60167e+00     6.51532e+00     8.93623e-01
H      -7.31439e-01     7.63623e+00     3.17309e-01
O      -2.41765e+00     9.12730e+00    -5.88918e+00
H      -1.59248e+00     9.63846e+00    -6.11472e+00
H      -2.47358e+00     8.60183e+00    -6.70080e+00
O       2.79698e+00    -4.09674e+00    -1.15629e+01
H       2.11934e+00    -3.86325e+00    -1.09630e+01
H       3.23046e+00    -4.89099e+00    -1.12097e+01
O       4.53489e+00     9.51207e+00    -1.09314e+01
H       4.59726e+00     1.03169e+01    -1.15415e+01
H       5.39403e+00     9.11320e+00    -1.09234e+01
O      -3.62618e+00     8.95893e+00     1.06134e+01
H      -3.70389e+00     8.02203e+00     1.09539e+01
H      -4.42342e+00     9.13623e+00     1.00726e+01
O      -3.71870e+00     2.62643e+00     7.25713e+00
H      -3.43816e+00     2.45085e+00     8.17654e+00
H      -4.67284e+00     2.54724e+00     7.19514e+00
O      -1.16800e+01     9.17556e+00     1.16050e+01
H      -1.20219e+01     8.63456e+00     1.23827e+01
H      -1.09906e+01     8.68345e+00     1.10866e+01
O       1.00739e+01    -6.37491e+00    -7.30701e+00
H       1.05775e+01    -6.02129e+00    -6.47719e+00
H       9.11288e+00    -6.28476e+00    -6.96896e+00
O      -7.20246e+00    -5.12685e+00     1.04219e+01
H      -6.24670e+00    -5.23036e+00     1.01758e+01
H      -7.16907e+00    -5.44670e+00     1.13245e+01
O      -8.88368e+00     6.56992e+00    -3.60507e+00
H      -9.23255e+00     5.89547e+00    -2.93936e+00
H      -8.89030e+00     6.06192e+00    -4.43051e+00
O       1.30005e+01     7.97277e+00     7.55423e+00
H       1.27492e+01     7.18686e+00     8.17191e+00
H       1.32852e+01     7.42714e+00     6.77083e+00
O       1.13789e+01     9.04971e+00    -5.28605e-01
H       1.18010e+01     9.37061e+00    -1.33887e+00
H       1.07705e+01     8.27693e+00    -6.47022e-01
O       9.23007e+00     9.03051e-01     7.05353e+00
H       8.24111e+00     1.04567e+00     6.90114e+00
H       9.62639e+00     5.23226e-01     6.22185e+00
O      -9.08259e+00     2.03106e+00    -9.93326e+00
H      -9.13092e+00     1.08483e+00    -9.67946e+00
H      -9.73780e+00     2.55612e+00    -9.48347e+00
O      -5.51386e+00     7.88850e+00    -5.82385e+00
H      -6.10080e+00     7.86480e+00    -6.62089e+00
H      -4.71874e+00     8.38481e+00    -6.09535e+00
O       5.58430e+00     1.11603e+01     6.42116e+00
H       5.06534e+00     1.12548e+01     5.53218e+00
H       6.36718e+00     1.17127e+01     6.24213e+00
O       5.56133e+00     2.14687e+00     1.33148e+01
H       4.64302e+00     2.51909e+00     1.31048e+01
H       6.24254e+00     2.56207e+00     1.27073e+01
O      -9.07399e+00     9.80115e+00    -1.00234e+01
H      -8.86812e+00     1.03985e+01    -9.21715e+00
H      -9.54629e+00     1.03579e+01    -1.06019e+01
O       4.19970e+00    -6.63928e+00    -1.12412e+01
H       4.59340e+00    -6.86862e+00    -1.21082e+01
H       3.44460e+00    -7.23663e+00    -1.11333e+01
O      -3.68309e+00    -9.36997e+00     7.20613e+00
H      -4.50841e+00    -9.91993e+00     7.05044e+00
H      -3.66394e+00    -9.03558e+00     8.13160e+00
O       5.06526e+00     1.15499e+01     1.18449e+01
H       5.09951e+00     1.11556e+01     1.09612e+01
H       4.20734e+00     1.20250e+01     1.18954e+01
O       8.12898e+00     1.10707e+00    -2.96350e+00
H       9.11491e+00     9.91914e-01    -2.91749e+00
H       7.73813e+00     8.37905e-01    -3.78586e+00
O      -1.13192e+01    -7.11917e+00    -4.01008e+00
H      -1.07099e+01    -6.42544e+00    -4.27135e+00
H      -1.21081e+01    -6.58671e+00    -4.05690e+00
O      -3.62792e+00     8.86604e+00     1.81744e+00
H      -3.63660e+00     8.83208e+00     2.78044e+00
H      -2.96031e+00     8.16591e+00     1.54955e+00
O      -2.55903e+00    -1.21009e+00    -8.76443e+00
H      -2.49574e+00    -9.06603e-01    -7.83390e+00
H      -3.39942e+00    -7.02329e-01    -9.00531e+00
O       1.13687e+01     2.51235e+00     7.07027e+00
H       1.04413e+01     2.15423e+00     7.17100e+00
H       1.18734e+01     1.65087e+00     6.97970e+00
O       3.56343e+00    -1.86091e+00    -5.70279e+00
H       2.85222e+00    -1.29375e+00    -5.37593e+00
H       3.30124e+00    -2.89417e+00    -5.69308e+00
O       1.23768e+01     1.01832e+01    -2.83637e+00
H       1.30851e+01     9.60991e+00    -3.24362e+00
H       1.28003e+01     1.09599e+01    -2.44920e+00
O      -1.08780e+01    -5.88754e+00     4.65519e+00
H      -1.10155e+01    -5.34857e+00     3.82951e+00
H      -1.04474e+01    -6.67032e+00     4.22816e+00
O      -9.36780e+00     2.42316e+00    -3.30228e+00
H      -8.99328e+00     1.57420e+00    -3.02053e+00
H      -8.75211e+00     2.84568e+00    -3.99913e+00
O      -1.89061e+00     5.57298e+00     3.38539e+00
H      -1.95036e+00     6.32384e+00     4.05664e+00
H      -2.03877e+00     4.84775e+00     4.05083e+00
O       7.66086e-01    -3.45737e+00     4.79093e+00
H       9.72383e-01    -3.07176e+00     3.90544e+00
H      -1.90406e-01    -3.52508e+00     4.82961e+00
O       3.51913e+00     7.69241e+00    -1.26436e+01
H       3.75824e+00     8.41515e+00    -1.20423e+01
H       2.61281e+00     7.37906e+00    -1.24573e+01
O       7.56400e+00    -3.74763e+00    -4.73026e+00
H       7.02773e+00    -3.90146e+00    -3.93586e+00
H       7.24344e+00    -2.94179e+00    -5.24643e+00
O       3.70848e+00    -2.68594e+00     5.23126e-02
H       3.93541e+00    -2.23218e+00     8.92832e-01
H       4.26089e+00    -2.16290e+00    -5.71035e-01
O      -5.81761e+00     5.69246e+00     5.31132e+00
H      -5.79714e+00     6.65422e+00     5.14243e+00
H      -5.10555e+00     5.56862e+00     6.04258e+00
O       3.29378e+00     9.27192e+00     4.81858e+00
H       2.72560e+00     8.48855e+00     4.58817e+00
H       4.06013e+00     8.88187e+00     5.28446e+00
