3
Frame 0, t=0.000 ps, E=-0.087510 Ha, T=0.0 K
O      0.000000     0.000000     0.000000
H      0.757000     0.586000     0.000000
H     -0.757000     0.586000     0.000000
3
Frame 1, t=0.001 ps, E=-0.086680 Ha, T=290144.1 K
O     -0.002450    -0.000518     0.000884
H      0.776015     0.582422    -0.005206
H     -0.737124     0.597796    -0.008818
3
Frame 2, t=0.002 ps, E=-0.085289 Ha, T=290047.9 K
O     -0.004900    -0.001036     0.001767
H      0.795029     0.578843    -0.010412
H     -0.717252     0.609596    -0.017637
3
Frame 3, t=0.002 ps, E=-0.083398 Ha, T=289916.5 K
O     -0.007350    -0.001554     0.002651
H      0.814039     0.575261    -0.015618
H     -0.697386     0.621402    -0.026456
3
Frame 4, t=0.003 ps, E=-0.081065 Ha, T=289753.8 K
O     -0.009798    -0.002072     0.003534
H      0.833042     0.571675    -0.020824
H     -0.677528     0.633215    -0.035275
3
Frame 5, t=0.003 ps, E=-0.078357 Ha, T=289564.7 K
O     -0.012245    -0.002591     0.004418
H      0.852035     0.568082    -0.026029
H     -0.657680     0.645037    -0.044094
3
Frame 6, t=0.004 ps, E=-0.075332 Ha, T=289354.2 K
O     -0.014691    -0.003109     0.005302
H      0.871017     0.564480    -0.031234
H     -0.637845     0.656870    -0.052915
3
Frame 7, t=0.004 ps, E=-0.072062 Ha, T=289126.5 K
O     -0.017135    -0.003628     0.006185
H      0.889986     0.560870    -0.036438
H     -0.618023     0.668717    -0.061736
3
Frame 8, t=0.004 ps, E=-0.068606 Ha, T=288885.2 K
O     -0.019577    -0.004147     0.007069
H      0.908940     0.557248    -0.041642
H     -0.598216     0.680579    -0.070559
3
Frame 9, t=0.005 ps, E=-0.065022 Ha, T=288635.2 K
O     -0.022017    -0.004667     0.007953
H      0.927877     0.553616    -0.046845
H     -0.578425     0.692458    -0.079384
3
Frame 10, t=0.005 ps, E=-0.061379 Ha, T=288380.8 K
O     -0.024455    -0.005187     0.008837
H      0.946796     0.549971    -0.052046
H     -0.558651     0.704354    -0.088212
3
Frame 11, t=0.006 ps, E=-0.057685 Ha, T=288123.0 K
O     -0.026890    -0.005707     0.009721
H      0.965695     0.546313    -0.057246
H     -0.538894     0.716271    -0.097042
3
Frame 12, t=0.006 ps, E=-0.053944 Ha, T=287861.7 K
O     -0.029323    -0.006228     0.010605
H      0.984575     0.542643    -0.062444
H     -0.519154     0.728207    -0.105875
3
Frame 13, t=0.007 ps, E=-0.050173 Ha, T=287598.3 K
O     -0.031754    -0.006749     0.011489
H      1.003434     0.538958    -0.067640
H     -0.499432     0.740165    -0.114711
3
Frame 14, t=0.007 ps, E=-0.046405 Ha, T=287335.5 K
O     -0.034182    -0.007271     0.012373
H      1.022271     0.535259    -0.072835
H     -0.479726     0.752145    -0.123551
3
Frame 15, t=0.008 ps, E=-0.042669 Ha, T=287074.6 K
O     -0.036608    -0.007793     0.013257
H      1.041085     0.531546    -0.078027
H     -0.460038     0.764146    -0.132396
3
Frame 16, t=0.009 ps, E=-0.038957 Ha, T=286815.7 K
O     -0.039032    -0.008316     0.014142
H      1.059875     0.527818    -0.083216
H     -0.440366     0.776169    -0.141244
3
Frame 17, t=0.009 ps, E=-0.035277 Ha, T=286558.8 K
O     -0.041452    -0.008839     0.015026
H      1.078642     0.524075    -0.088403
H     -0.420709     0.788214    -0.150096
3
Frame 18, t=0.009 ps, E=-0.031628 Ha, T=286304.1 K
O     -0.043871    -0.009362     0.015911
H      1.097384     0.520318    -0.093587
H     -0.401066     0.800279    -0.158953
3
Frame 19, t=0.010 ps, E=-0.027998 Ha, T=286050.7 K
O     -0.046287    -0.009886     0.016796
H      1.116103     0.516545    -0.098767
H     -0.381437     0.812363    -0.167814
3
Frame 20, t=0.011 ps, E=-0.024360 Ha, T=285796.7 K
O     -0.048701    -0.010410     0.017680
H      1.134797     0.512758    -0.103945
H     -0.361821     0.824466    -0.176679
3
Frame 21, t=0.011 ps, E=-0.020686 Ha, T=285540.1 K
O     -0.051112    -0.010934     0.018565
H      1.153466     0.508957    -0.109119
H     -0.342216     0.836585    -0.185548
3
Frame 22, t=0.011 ps, E=-0.016952 Ha, T=285279.3 K
O     -0.053521    -0.011458     0.019450
H      1.172112     0.505141    -0.114290
H     -0.322621     0.848720    -0.194421
3
Frame 23, t=0.012 ps, E=-0.013136 Ha, T=285012.6 K
O     -0.055928    -0.011982     0.020335
H      1.190733     0.501311    -0.119457
H     -0.303036     0.860867    -0.203297
3
Frame 24, t=0.013 ps, E=-0.009197 Ha, T=284737.3 K
O     -0.058333    -0.012506     0.021219
H      1.209330     0.497468    -0.124620
H     -0.283460     0.873024    -0.212175
3
Frame 25, t=0.013 ps, E=-0.005094 Ha, T=284450.5 K
O     -0.060737    -0.013029     0.022104
H      1.227904     0.493611    -0.129779
H     -0.263891     0.885190    -0.221056
3
Frame 26, t=0.013 ps, E=-0.000821 Ha, T=284151.5 K
O     -0.063138    -0.013552     0.022988
H      1.246453     0.489740    -0.134935
H     -0.244330     0.897361    -0.229938
3
Frame 27, t=0.014 ps, E=0.003643 Ha, T=283839.1 K
O     -0.065537    -0.014075     0.023873
H      1.264979     0.485857    -0.140087
H     -0.224775     0.909536    -0.238820
3
Frame 28, t=0.015 ps, E=0.008331 Ha, T=283511.0 K
O     -0.067934    -0.014596     0.024757
H      1.283482     0.481960    -0.145234
H     -0.205225     0.921711    -0.247703
3
Frame 29, t=0.015 ps, E=0.013266 Ha, T=283165.2 K
O     -0.070330    -0.015117     0.025640
H      1.301961     0.478051    -0.150378
H     -0.185682     0.933884    -0.256585
3
Frame 30, t=0.015 ps, E=0.018460 Ha, T=282801.3 K
O     -0.072724    -0.015637     0.026524
H      1.320417     0.474130    -0.155517
H     -0.166143     0.946053    -0.265466
3
Frame 31, t=0.016 ps, E=0.023899 Ha, T=282420.3 K
O     -0.075116    -0.016155     0.027407
H      1.338850     0.470196    -0.160652
H     -0.146610     0.958216    -0.274345
3
Frame 32, t=0.017 ps, E=0.029535 Ha, T=282025.7 K
O     -0.077506    -0.016672     0.028289
H      1.357260     0.466250    -0.165783
H     -0.127083     0.970369    -0.283221
3
Frame 33, t=0.017 ps, E=0.035300 Ha, T=281620.9 K
O     -0.079894    -0.017188     0.029171
H      1.375647     0.462293    -0.170909
H     -0.107560     0.982513    -0.292093
3
Frame 34, t=0.018 ps, E=0.041193 Ha, T=281207.8 K
O     -0.082281    -0.017702     0.030052
H      1.394011     0.458323    -0.176031
H     -0.088044     0.994644    -0.300961
3
Frame 35, t=0.018 ps, E=0.047173 Ha, T=280787.0 K
O     -0.084666    -0.018215     0.030933
H      1.412353     0.454343    -0.181148
H     -0.068534     1.006761    -0.309825
3
Frame 36, t=0.018 ps, E=0.053272 Ha, T=280359.1 K
O     -0.087049    -0.018726     0.031813
H      1.430674     0.450351    -0.186261
H     -0.049029     1.018864    -0.318683
3
Frame 37, t=0.019 ps, E=0.059421 Ha, T=279926.5 K
O     -0.089430    -0.019235     0.032693
H      1.448974     0.446350    -0.191370
H     -0.029531     1.030949    -0.327536
3
Frame 38, t=0.019 ps, E=0.065637 Ha, T=279489.5 K
O     -0.091810    -0.019743     0.033572
H      1.467255     0.442339    -0.196474
H     -0.010040     1.043015    -0.336381
3
Frame 39, t=0.020 ps, E=0.071905 Ha, T=279047.8 K
O     -0.094188    -0.020248     0.034450
H      1.485516     0.438319    -0.201575
H      0.009445     1.055062    -0.345220
3
Frame 40, t=0.021 ps, E=0.078262 Ha, T=278599.7 K
O     -0.096565    -0.020752     0.035328
H      1.503760     0.434290    -0.206672
H      0.028923     1.067088    -0.354051
3
Frame 41, t=0.021 ps, E=0.084724 Ha, T=278144.0 K
O     -0.098940    -0.021254     0.036205
H      1.521986     0.430253    -0.211765
H      0.048394     1.079092    -0.362874
3
Frame 42, t=0.021 ps, E=0.091293 Ha, T=277680.8 K
O     -0.101314    -0.021754     0.037081
H      1.540193     0.426209    -0.216854
H      0.067859     1.091074    -0.371689
3
Frame 43, t=0.022 ps, E=0.097962 Ha, T=277210.2 K
O     -0.103686    -0.022252     0.037956
H      1.558383     0.422157    -0.221940
H      0.087316     1.103033    -0.380495
3
Frame 44, t=0.022 ps, E=0.104714 Ha, T=276733.4 K
O     -0.106056    -0.022749     0.038830
H      1.576555     0.418099    -0.227022
H      0.106767     1.114968    -0.389292
3
Frame 45, t=0.023 ps, E=0.111542 Ha, T=276251.0 K
O     -0.108425    -0.023243     0.039704
H      1.594708     0.414034    -0.232101
H      0.126211     1.126878    -0.398079
3
Frame 46, t=0.024 ps, E=0.118425 Ha, T=275765.0 K
O     -0.110792    -0.023735     0.040577
H      1.612843     0.409964    -0.237176
H      0.145648     1.138763    -0.406857
3
Frame 47, t=0.024 ps, E=0.125264 Ha, T=275281.9 K
O     -0.113157    -0.024226     0.041449
H      1.630959     0.405888    -0.242248
H      0.165078     1.150623    -0.415625
3
Frame 48, t=0.025 ps, E=0.131952 Ha, T=274808.1 K
O     -0.115521    -0.024714     0.042320
H      1.649057     0.401806    -0.247317
H      0.184502     1.162457    -0.424383
3
Frame 49, t=0.025 ps, E=0.138474 Ha, T=274346.1 K
O     -0.117884    -0.025201     0.043190
H      1.667136     0.397720    -0.252383
H      0.203918     1.174265    -0.433131
3
Frame 50, t=0.025 ps, E=0.144772 Ha, T=273899.7 K
O     -0.120245    -0.025685     0.044060
H      1.685199     0.393631    -0.257446
H      0.223328     1.186048    -0.441869
3
Frame 51, t=0.026 ps, E=0.150803 Ha, T=273468.1 K
O     -0.122604    -0.026168     0.044928
H      1.703244     0.389537    -0.262506
H      0.242731     1.197807    -0.450597
3
Frame 52, t=0.026 ps, E=0.156830 Ha, T=273039.3 K
O     -0.124962    -0.026650     0.045796
H      1.721274     0.385441    -0.267564
H      0.262128     1.209542    -0.459315
3
Frame 53, t=0.027 ps, E=0.162917 Ha, T=272606.5 K
O     -0.127319    -0.027129     0.046663
H      1.739289     0.381342    -0.272620
H      0.281519     1.221253    -0.468024
3
Frame 54, t=0.028 ps, E=0.169040 Ha, T=272170.3 K
O     -0.129674    -0.027607     0.047530
H      1.757288     0.377240    -0.277673
H      0.300903     1.232941    -0.476724
3
Frame 55, t=0.028 ps, E=0.175135 Ha, T=271736.8 K
O     -0.132028    -0.028083     0.048396
H      1.775273     0.373136    -0.282724
H      0.320279     1.244604    -0.485413
3
Frame 56, t=0.029 ps, E=0.181070 Ha, T=271313.1 K
O     -0.134381    -0.028558     0.049261
H      1.793244     0.369028    -0.287773
H      0.339647     1.256244    -0.494092
3
Frame 57, t=0.029 ps, E=0.186851 Ha, T=270898.7 K
O     -0.136732    -0.029031     0.050125
H      1.811203     0.364918    -0.292819
H      0.359007     1.267861    -0.502762
3
Frame 58, t=0.029 ps, E=0.192532 Ha, T=270492.2 K
O     -0.139082    -0.029502     0.050988
H      1.829149     0.360806    -0.297863
H      0.378357     1.279456    -0.511422
3
Frame 59, t=0.030 ps, E=0.198058 Ha, T=270096.0 K
O     -0.141430    -0.029972     0.051851
H      1.847083     0.356690    -0.302905
H      0.397698     1.291028    -0.520073
3
Frame 60, t=0.030 ps, E=0.203399 Ha, T=269712.9 K
O     -0.143777    -0.030440     0.052713
H      1.865006     0.352572    -0.307944
H      0.417030     1.302580    -0.528714
3
Frame 61, t=0.031 ps, E=0.208561 Ha, T=269338.6 K
O     -0.146123    -0.030907     0.053574
H      1.882918     0.348450    -0.312981
H      0.436352     1.314112    -0.537347
3
Frame 62, t=0.032 ps, E=0.213472 Ha, T=268986.5 K
O     -0.148468    -0.031373     0.054435
H      1.900818     0.344327    -0.318016
H      0.455666     1.325624    -0.545971
3
Frame 63, t=0.032 ps, E=0.217772 Ha, T=268672.5 K
O     -0.150811    -0.031837     0.055295
H      1.918709     0.340202    -0.323050
H      0.474971     1.337117    -0.554586
3
Frame 64, t=0.033 ps, E=0.221722 Ha, T=268383.3 K
O     -0.153154    -0.032300     0.056154
H      1.936589     0.336075    -0.328081
H      0.494268     1.348592    -0.563194
3
Frame 65, t=0.033 ps, E=0.225604 Ha, T=268094.6 K
O     -0.155495    -0.032762     0.057013
H      1.954462     0.331948    -0.333112
H      0.513559     1.360050    -0.571794
3
Frame 66, t=0.034 ps, E=0.230081 Ha, T=267770.5 K
O     -0.157836    -0.033223     0.057871
H      1.972327     0.327820    -0.338141
H      0.532844     1.371493    -0.580388
3
Frame 67, t=0.034 ps, E=0.235118 Ha, T=267405.1 K
O     -0.160175    -0.033683     0.058729
H      1.990185     0.323693    -0.343170
H      0.552123     1.382917    -0.588973
3
Frame 68, t=0.035 ps, E=0.240534 Ha, T=267013.1 K
O     -0.162514    -0.034141     0.059586
H      2.008034     0.319567    -0.348198
H      0.571394     1.394321    -0.597549
3
Frame 69, t=0.035 ps, E=0.246362 Ha, T=266591.3 K
O     -0.164852    -0.034598     0.060442
H      2.025875     0.315440    -0.353225
H      0.590655     1.405702    -0.606116
3
Frame 70, t=0.035 ps, E=0.252636 Ha, T=266138.3 K
O     -0.167188    -0.035054     0.061298
H      2.043707     0.311315    -0.358251
H      0.609907     1.417059    -0.614671
3
Frame 71, t=0.036 ps, E=0.259173 Ha, T=265674.2 K
O     -0.169523    -0.035508     0.062153
H      2.061529     0.307189    -0.363276
H      0.629149     1.428390    -0.623215
3
Frame 72, t=0.036 ps, E=0.265260 Ha, T=265231.6 K
O     -0.171857    -0.035960     0.063007
H      2.079341     0.303064    -0.368300
H      0.648378     1.439694    -0.631746
3
Frame 73, t=0.037 ps, E=0.270911 Ha, T=264821.8 K
O     -0.174189    -0.036411     0.063860
H      2.097142     0.298938    -0.373322
H      0.667595     1.450973    -0.640266
3
Frame 74, t=0.037 ps, E=0.276024 Ha, T=264448.5 K
O     -0.176520    -0.036860     0.064712
H      2.114933     0.294813    -0.378343
H      0.686801     1.462228    -0.648775
3
Frame 75, t=0.038 ps, E=0.280571 Ha, T=264114.6 K
O     -0.178850    -0.037308     0.065564
H      2.132714     0.290688    -0.383363
H      0.705997     1.473462    -0.657274
3
Frame 76, t=0.038 ps, E=0.284582 Ha, T=263817.5 K
O     -0.181179    -0.037754     0.066415
H      2.150488     0.286562    -0.388381
H      0.725184     1.484677    -0.665764
3
Frame 77, t=0.039 ps, E=0.288103 Ha, T=263554.3 K
O     -0.183506    -0.038200     0.067266
H      2.168253     0.282437    -0.393398
H      0.744362     1.495874    -0.674246
3
Frame 78, t=0.040 ps, E=0.291200 Ha, T=263320.3 K
O     -0.185833    -0.038645     0.068116
H      2.186012     0.278312    -0.398415
H      0.763532     1.507057    -0.682721
3
Frame 79, t=0.040 ps, E=0.293920 Ha, T=263113.9 K
O     -0.188159    -0.039088     0.068965
H      2.203766     0.274187    -0.403431
H      0.782696     1.518226    -0.691190
3
Frame 80, t=0.041 ps, E=0.296179 Ha, T=262938.3 K
O     -0.190484    -0.039531     0.069815
H      2.221516     0.270062    -0.408446
H      0.801853     1.529383    -0.699653
3
Frame 81, t=0.041 ps, E=0.297961 Ha, T=262795.7 K
O     -0.192809    -0.039974     0.070663
H      2.239262     0.265937    -0.413461
H      0.821004     1.540528    -0.708110
3
Frame 82, t=0.042 ps, E=0.299247 Ha, T=262688.2 K
O     -0.195133    -0.040416     0.071512
H      2.257006     0.261813    -0.418476
H      0.840150     1.551664    -0.716563
3
Frame 83, t=0.042 ps, E=0.299981 Ha, T=262618.4 K
O     -0.197457    -0.040857     0.072360
H      2.274750     0.257689    -0.423491
H      0.859291     1.562792    -0.725012
3
Frame 84, t=0.043 ps, E=0.300146 Ha, T=262587.6 K
O     -0.199781    -0.041298     0.073208
H      2.292495     0.253566    -0.428506
H      0.878428     1.573913    -0.733458
3
Frame 85, t=0.043 ps, E=0.299779 Ha, T=262593.7 K
O     -0.202104    -0.041738     0.074056
H      2.310241     0.249443    -0.433522
H      0.897563     1.585029    -0.741902
3
Frame 86, t=0.043 ps, E=0.298944 Ha, T=262632.1 K
O     -0.204428    -0.042179     0.074904
H      2.327990     0.245321    -0.438538
H      0.916696     1.596142    -0.750343
3
Frame 87, t=0.044 ps, E=0.297722 Ha, T=262697.3 K
O     -0.206752    -0.042619     0.075752
H      2.345744     0.241201    -0.443556
H      0.935830     1.607252    -0.758784
3
Frame 88, t=0.044 ps, E=0.296180 Ha, T=262784.7 K
O     -0.209076    -0.043060     0.076600
H      2.363503     0.237083    -0.448576
H      0.954964     1.618360    -0.767225
3
Frame 89, t=0.045 ps, E=0.294376 Ha, T=262889.9 K
O     -0.211401    -0.043500     0.077448
H      2.381267     0.232967    -0.453597
H      0.974101     1.629467    -0.775665
3
Frame 90, t=0.045 ps, E=0.292378 Ha, T=263008.1 K
O     -0.213727    -0.043941     0.078297
H      2.399039     0.228854    -0.458621
H      0.993239     1.640573    -0.784105
3
Frame 91, t=0.046 ps, E=0.290260 Ha, T=263134.5 K
O     -0.216053    -0.044381     0.079145
H      2.416820     0.224745    -0.463648
H      1.012381     1.651678    -0.792545
3
Frame 92, t=0.046 ps, E=0.288081 Ha, T=263264.7 K
O     -0.218380    -0.044822     0.079994
H      2.434609     0.220639    -0.468677
H      1.031526     1.662782    -0.800985
3
Frame 93, t=0.047 ps, E=0.285885 Ha, T=263396.0 K
O     -0.220708    -0.045263     0.080843
H      2.452408     0.216537    -0.473709
H      1.050675     1.673883    -0.809425
3
Frame 94, t=0.048 ps, E=0.283672 Ha, T=263527.8 K
O     -0.223037    -0.045704     0.081692
H      2.470217     0.212440    -0.478745
H      1.069827     1.684983    -0.817865
3
Frame 95, t=0.048 ps, E=0.276718 Ha, T=263661.5 K
O     -0.225366    -0.046146     0.082541
H      2.488036     0.208346    -0.483785
H      1.088982     1.696080    -0.826304
3
Frame 96, t=0.049 ps, E=0.274564 Ha, T=263798.8 K
O     -0.227697    -0.046587     0.083390
H      2.505866     0.204258    -0.488828
H      1.108141     1.707175    -0.834743
3
Frame 97, t=0.049 ps, E=0.272364 Ha, T=263938.9 K
O     -0.230028    -0.047029     0.084240
H      2.523705     0.200174    -0.493874
H      1.127304     1.718267    -0.843182
3
Frame 98, t=0.050 ps, E=0.270171 Ha, T=264078.3 K
O     -0.232360    -0.047470     0.085090
H      2.541554     0.196095    -0.498924
H      1.146472     1.729357    -0.851621
3
Frame 99, t=0.050 ps, E=0.268045 Ha, T=264212.8 K
O     -0.234693    -0.047912     0.085940
H      2.559413     0.192020    -0.503978
H      1.165644     1.740445    -0.860059
3
Frame 100, t=0.051 ps, E=0.266024 Ha, T=264339.9 K
O     -0.237027    -0.048354     0.086790
H      2.577279     0.187951    -0.509035
H      1.184822     1.751532    -0.868499
3
Frame 101, t=0.051 ps, E=0.264126 Ha, T=264458.0 K
O     -0.239362    -0.048797     0.087641
H      2.595153     0.183886    -0.514095
H      1.204005     1.762618    -0.876938
3
Frame 102, t=0.051 ps, E=0.262365 Ha, T=264566.1 K
O     -0.241697    -0.049239     0.088491
H      2.613034     0.179826    -0.519158
H      1.223194     1.773702    -0.885379
3
Frame 103, t=0.052 ps, E=0.260748 Ha, T=264664.3 K
O     -0.244034    -0.049682     0.089342
H      2.630920     0.175770    -0.524224
H      1.242387     1.784785    -0.893819
3
Frame 104, t=0.052 ps, E=0.259227 Ha, T=264755.5 K
O     -0.246370    -0.050125     0.090193
H      2.648811     0.171719    -0.529292
H      1.261586     1.795866    -0.902260
3
Frame 105, t=0.053 ps, E=0.257760 Ha, T=264842.5 K
O     -0.248708    -0.050568     0.091045
H      2.666706     0.167672    -0.534363
H      1.280791     1.806946    -0.910702
3
Frame 106, t=0.053 ps, E=0.256312 Ha, T=264927.8 K
O     -0.251046    -0.051011     0.091896
H      2.684604     0.163630    -0.539436
H      1.300001     1.818025    -0.919144
3
Frame 107, t=0.054 ps, E=0.254857 Ha, T=265013.4 K
O     -0.253384    -0.051455     0.092748
H      2.702506     0.159592    -0.544512
H      1.319216     1.829102    -0.927586
3
Frame 108, t=0.054 ps, E=0.253380 Ha, T=265100.1 K
O     -0.255723    -0.051899     0.093600
H      2.720409     0.155559    -0.549589
H      1.338438     1.840179    -0.936029
3
Frame 109, t=0.055 ps, E=0.251881 Ha, T=265187.9 K
O     -0.258063    -0.052343     0.094452
H      2.738314     0.151530    -0.554669
H      1.357666     1.851255    -0.944474
3
Frame 110, t=0.056 ps, E=0.250372 Ha, T=265276.2 K
O     -0.260403    -0.052787     0.095304
H      2.756220     0.147505    -0.559750
H      1.376900     1.862330    -0.952919
3
Frame 111, t=0.056 ps, E=0.248878 Ha, T=265363.2 K
O     -0.262743    -0.053231     0.096157
H      2.774127     0.143485    -0.564834
H      1.396141     1.873406    -0.961366
3
Frame 112, t=0.057 ps, E=0.242245 Ha, T=265447.6 K
O     -0.265084    -0.053676     0.097009
H      2.792035     0.139468    -0.569919
H      1.415388     1.884482    -0.969814
3
Frame 113, t=0.057 ps, E=0.241050 Ha, T=265527.7 K
O     -0.267426    -0.054121     0.097862
H      2.809943     0.135456    -0.575006
H      1.434642     1.895558    -0.978263
3
Frame 114, t=0.058 ps, E=0.239944 Ha, T=265601.5 K
O     -0.269767    -0.054567     0.098715
H      2.827852     0.131448    -0.580094
H      1.453903     1.906635    -0.986714
3
Frame 115, t=0.058 ps, E=0.238942 Ha, T=265668.1 K
O     -0.272110    -0.055012     0.099568
H      2.845761     0.127444    -0.585184
H      1.473170     1.917711    -0.995166
3
Frame 116, t=0.059 ps, E=0.238044 Ha, T=265727.3 K
O     -0.274452    -0.055458     0.100422
H      2.863670     0.123444    -0.590275
H      1.492444     1.928788    -1.003620
3
Frame 117, t=0.059 ps, E=0.237251 Ha, T=265779.2 K
O     -0.276795    -0.055904     0.101275
H      2.881579     0.119448    -0.595368
H      1.511723     1.939864    -1.012074
3
Frame 118, t=0.059 ps, E=0.236547 Ha, T=265824.8 K
O     -0.279139    -0.056350     0.102129
H      2.899489     0.115455    -0.600463
H      1.531007     1.950939    -1.020529
3
Frame 119, t=0.060 ps, E=0.235906 Ha, T=265866.1 K
O     -0.281482    -0.056797     0.102983
H      2.917398     0.111467    -0.605559
H      1.550296     1.962012    -1.028984
3
Frame 120, t=0.060 ps, E=0.235306 Ha, T=265904.2 K
O     -0.283826    -0.057243     0.103837
H      2.935308     0.107482    -0.610656
H      1.569590     1.973084    -1.037440
3
Frame 121, t=0.061 ps, E=0.234707 Ha, T=265942.5 K
O     -0.286171    -0.057690     0.104691
H      2.953218     0.103501    -0.615755
H      1.588888     1.984155    -1.045896
3
Frame 122, t=0.061 ps, E=0.234057 Ha, T=265984.1 K
O     -0.288515    -0.058137     0.105545
H      2.971128     0.099524    -0.620855
H      1.608190     1.995223    -1.054352
3
Frame 123, t=0.062 ps, E=0.233344 Ha, T=266030.0 K
O     -0.290860    -0.058584     0.106399
H      2.989040     0.095550    -0.625957
H      1.627496     2.006289    -1.062808
3
Frame 124, t=0.062 ps, E=0.232565 Ha, T=266080.8 K
O     -0.293205    -0.059031     0.107253
H      3.006952     0.091580    -0.631061
H      1.646806     2.017354    -1.071264
3
Frame 125, t=0.063 ps, E=0.231701 Ha, T=266137.2 K
O     -0.295551    -0.059478     0.108108
H      3.024866     0.087614    -0.636166
H      1.666119     2.028417    -1.079720
3
Frame 126, t=0.064 ps, E=0.230741 Ha, T=266200.5 K
O     -0.297896    -0.059925     0.108962
H      3.042782     0.083650    -0.641272
H      1.685437     2.039479    -1.088177
3
Frame 127, t=0.064 ps, E=0.229671 Ha, T=266271.4 K
O     -0.300243    -0.060372     0.109817
H      3.060701     0.079690    -0.646381
H      1.704758     2.050539    -1.096634
3
Frame 128, t=0.065 ps, E=0.228483 Ha, T=266350.5 K
O     -0.302589    -0.060820     0.110672
H      3.078622     0.075733    -0.651491
H      1.724083     2.061598    -1.105091
3
Frame 129, t=0.065 ps, E=0.227179 Ha, T=266437.4 K
O     -0.304936    -0.061267     0.111527
H      3.096546     0.071780    -0.656603
H      1.743411     2.072656    -1.113549
3
Frame 130, t=0.066 ps, E=0.225789 Ha, T=266530.5 K
O     -0.307284    -0.061715     0.112382
H      3.114475     0.067829    -0.661717
H      1.762744     2.083713    -1.122007
3
Frame 131, t=0.066 ps, E=0.224330 Ha, T=266628.4 K
O     -0.309632    -0.062163     0.113237
H      3.132409     0.063881    -0.666833
H      1.782080     2.094769    -1.130465
3
Frame 132, t=0.067 ps, E=0.222819 Ha, T=266729.9 K
O     -0.311981    -0.062611     0.114092
H      3.150347     0.059936    -0.671952
H      1.801420     2.105825    -1.138925
3
Frame 133, t=0.067 ps, E=0.221272 Ha, T=266833.9 K
O     -0.314330    -0.063059     0.114948
H      3.168290     0.055994    -0.677072
H      1.820764     2.116881    -1.147385
3
Frame 134, t=0.068 ps, E=0.219699 Ha, T=266939.7 K
O     -0.316680    -0.063507     0.115804
H      3.186239     0.052054    -0.682195
H      1.840112     2.127937    -1.155846
3
Frame 135, t=0.068 ps, E=0.218106 Ha, T=267046.9 K
O     -0.319030    -0.063956     0.116660
H      3.204193     0.048117    -0.687319
H      1.859463     2.138992    -1.164307
3
Frame 136, t=0.069 ps, E=0.216496 Ha, T=267155.2 K
O     -0.321381    -0.064405     0.117516
H      3.222153     0.044183    -0.692446
H      1.878819     2.150048    -1.172770
3
Frame 137, t=0.069 ps, E=0.214873 Ha, T=267264.6 K
O     -0.323733    -0.064853     0.118372
H      3.240117     0.040252    -0.697575
H      1.898179     2.161103    -1.181233
3
Frame 138, t=0.070 ps, E=0.213223 Ha, T=267375.7 K
O     -0.326085    -0.065302     0.119229
H      3.258087     0.036323    -0.702706
H      1.917543     2.172160    -1.189698
3
Frame 139, t=0.070 ps, E=0.211536 Ha, T=267489.4 K
O     -0.328438    -0.065752     0.120086
H      3.276060     0.032396    -0.707838
H      1.936912     2.183217    -1.198164
3
Frame 140, t=0.070 ps, E=0.206752 Ha, T=267605.9 K
O     -0.330791    -0.066201     0.120943
H      3.294037     0.028472    -0.712973
H      1.956286     2.194275    -1.206632
3
Frame 141, t=0.071 ps, E=0.205071 Ha, T=267723.7 K
O     -0.333145    -0.066651     0.121800
H      3.312018     0.024550    -0.718109
H      1.975666     2.205336    -1.215101
3
Frame 142, t=0.071 ps, E=0.203395 Ha, T=267841.3 K
O     -0.335499    -0.067101     0.122657
H      3.330001     0.020631    -0.723246
H      1.995050     2.216398    -1.223572
3
Frame 143, t=0.072 ps, E=0.201737 Ha, T=267957.5 K
O     -0.337854    -0.067551     0.123515
H      3.347988     0.016713    -0.728385
H      2.014441     2.227463    -1.232046
3
Frame 144, t=0.072 ps, E=0.200113 Ha, T=268071.4 K
O     -0.340210    -0.068002     0.124373
H      3.365976     0.012797    -0.733525
H      2.033838     2.238531    -1.240522
3
Frame 145, t=0.073 ps, E=0.198541 Ha, T=268181.6 K
O     -0.342565    -0.068453     0.125231
H      3.383966     0.008883    -0.738666
H      2.053240     2.249602    -1.249001
3
Frame 146, t=0.073 ps, E=0.197034 Ha, T=268287.4 K
O     -0.344922    -0.068904     0.126089
H      3.401959     0.004971    -0.743807
H      2.072648     2.260676    -1.257481
3
Frame 147, t=0.074 ps, E=0.195598 Ha, T=268388.1 K
O     -0.347279    -0.069356     0.126948
H      3.419953     0.001059    -0.748950
H      2.092061     2.271754    -1.265964
3
Frame 148, t=0.074 ps, E=0.194247 Ha, T=268482.9 K
O     -0.349636    -0.069807     0.127806
H      3.437949    -0.002851    -0.754094
H      2.111478     2.282834    -1.274450
3
Frame 149, t=0.075 ps, E=0.192990 Ha, T=268571.2 K
O     -0.351993    -0.070259     0.128665
H      3.455947    -0.006761    -0.759238
H      2.130900     2.293917    -1.282937
3
Frame 150, t=0.075 ps, E=0.191803 Ha, T=268654.7 K
O     -0.354351    -0.070711     0.129524
H      3.473948    -0.010670    -0.764383
H      2.150326     2.305004    -1.291426
3
Frame 151, t=0.076 ps, E=0.190654 Ha, T=268735.5 K
O     -0.356710    -0.071164     0.130383
H      3.491951    -0.014580    -0.769528
H      2.169754     2.316092    -1.299917
3
Frame 152, t=0.076 ps, E=0.189521 Ha, T=268815.1 K
O     -0.359068    -0.071616     0.131242
H      3.509956    -0.018489    -0.774675
H      2.189185     2.327184    -1.308409
3
Frame 153, t=0.077 ps, E=0.188387 Ha, T=268894.8 K
O     -0.361427    -0.072069     0.132102
H      3.527966    -0.022398    -0.779821
H      2.208618     2.338277    -1.316903
3
Frame 154, t=0.077 ps, E=0.187233 Ha, T=268975.8 K
O     -0.363787    -0.072522     0.132961
H      3.545978    -0.026308    -0.784969
H      2.228053     2.349373    -1.325397
3
Frame 155, t=0.078 ps, E=0.186045 Ha, T=269059.3 K
O     -0.366146    -0.072975     0.133821
H      3.563995    -0.030218    -0.790117
H      2.247489     2.360472    -1.333893
3
Frame 156, t=0.079 ps, E=0.184812 Ha, T=269145.8 K
O     -0.368506    -0.073427     0.134681
H      3.582016    -0.034130    -0.795266
H      2.266926     2.371573    -1.342390
3
Frame 157, t=0.079 ps, E=0.183530 Ha, T=269235.7 K
O     -0.370867    -0.073881     0.135541
H      3.600041    -0.038043    -0.800415
H      2.286365     2.382676    -1.350889
3
Frame 158, t=0.080 ps, E=0.182201 Ha, T=269329.0 K
O     -0.373227    -0.074334     0.136401
H      3.618071    -0.041956    -0.805565
H      2.305804     2.393783    -1.359388
3
Frame 159, t=0.080 ps, E=0.180829 Ha, T=269425.2 K
O     -0.375589    -0.074787     0.137261
H      3.636105    -0.045872    -0.810716
H      2.325245     2.404893    -1.367889
3
Frame 160, t=0.081 ps, E=0.179426 Ha, T=269523.5 K
O     -0.377950    -0.075240     0.138121
H      3.654144    -0.049789    -0.815867
H      2.344687     2.416006    -1.376392
3
Frame 161, t=0.081 ps, E=0.178010 Ha, T=269622.7 K
O     -0.380312    -0.075694     0.138981
H      3.672188    -0.053707    -0.821019
H      2.364130     2.427124    -1.384896
3
Frame 162, t=0.082 ps, E=0.176604 Ha, T=269721.3 K
O     -0.382674    -0.076148     0.139842
H      3.690235    -0.057628    -0.826171
H      2.383574     2.438245    -1.393402
3
Frame 163, t=0.082 ps, E=0.175231 Ha, T=269817.5 K
O     -0.385036    -0.076601     0.140702
H      3.708287    -0.061550    -0.831323
H      2.403020     2.449371    -1.401910
3
Frame 164, t=0.083 ps, E=0.173920 Ha, T=269909.3 K
O     -0.387399    -0.077055     0.141563
H      3.726342    -0.065475    -0.836475
H      2.422468     2.460502    -1.410420
3
Frame 165, t=0.083 ps, E=0.172696 Ha, T=269995.1 K
O     -0.389762    -0.077510     0.142424
H      3.744401    -0.069402    -0.841627
H      2.441917     2.471637    -1.418932
3
Frame 166, t=0.084 ps, E=0.171584 Ha, T=270073.0 K
O     -0.392126    -0.077964     0.143285
H      3.762462    -0.073332    -0.846779
H      2.461368     2.482778    -1.427446
3
Frame 167, t=0.084 ps, E=0.170600 Ha, T=270142.0 K
O     -0.394489    -0.078418     0.144146
H      3.780526    -0.077265    -0.851930
H      2.480820     2.493923    -1.435962
3
Frame 168, t=0.085 ps, E=0.169753 Ha, T=270201.4 K
O     -0.396853    -0.078873     0.145007
H      3.798592    -0.081200    -0.857081
H      2.500272     2.505074    -1.444480
3
Frame 169, t=0.085 ps, E=0.169041 Ha, T=270251.5 K
O     -0.399217    -0.079328     0.145869
H      3.816659    -0.085139    -0.862232
H      2.519725     2.516229    -1.453000
3
Frame 170, t=0.086 ps, E=0.168452 Ha, T=270292.9 K
O     -0.401581    -0.079782     0.146730
H      3.834729    -0.089081    -0.867381
H      2.539178     2.527390    -1.461522
3
Frame 171, t=0.086 ps, E=0.167965 Ha, T=270327.2 K
O     -0.403945    -0.080237     0.147591
H      3.852799    -0.093026    -0.872530
H      2.558630     2.538554    -1.470045
3
Frame 172, t=0.086 ps, E=0.167553 Ha, T=270356.4 K
O     -0.406309    -0.080692     0.148453
H      3.870872    -0.096975    -0.877678
H      2.578081     2.549723    -1.478569
3
Frame 173, t=0.087 ps, E=0.167183 Ha, T=270382.6 K
O     -0.408674    -0.081147     0.149314
H      3.888945    -0.100928    -0.882825
H      2.597531     2.560896    -1.487094
3
Frame 174, t=0.087 ps, E=0.166819 Ha, T=270408.3 K
O     -0.411038    -0.081602     0.150176
H      3.907020    -0.104885    -0.887970
H      2.616978     2.572072    -1.495620
3
Frame 175, t=0.088 ps, E=0.166428 Ha, T=270435.9 K
O     -0.413402    -0.082057     0.151037
H      3.925097    -0.108846    -0.893115
H      2.636424     2.583253    -1.504146
3
Frame 176, t=0.088 ps, E=0.165980 Ha, T=270467.5 K
O     -0.415766    -0.082512     0.151898
H      3.943176    -0.112811    -0.898259
H      2.655867     2.594437    -1.512674
3
Frame 177, t=0.089 ps, E=0.165453 Ha, T=270504.5 K
O     -0.418130    -0.082966     0.152760
H      3.961258    -0.116779    -0.903403
H      2.675308     2.605625    -1.521202
3
Frame 178, t=0.089 ps, E=0.164833 Ha, T=270548.0 K
O     -0.420494    -0.083421     0.153621
H      3.979341    -0.120753    -0.908545
H      2.694746     2.616818    -1.529731
3
Frame 179, t=0.090 ps, E=0.164117 Ha, T=270598.3 K
O     -0.422858    -0.083876     0.154482
H      3.997428    -0.124730    -0.913687
H      2.714183     2.628014    -1.538261
3
Frame 180, t=0.090 ps, E=0.163309 Ha, T=270654.9 K
O     -0.425222    -0.084331     0.155344
H      4.015517    -0.128711    -0.918827
H      2.733618     2.639214    -1.546792
3
Frame 181, t=0.091 ps, E=0.162423 Ha, T=270717.0 K
O     -0.427586    -0.084786     0.156205
H      4.033610    -0.132697    -0.923968
H      2.753051     2.650419    -1.555324
3
Frame 182, t=0.091 ps, E=0.161476 Ha, T=270783.2 K
O     -0.429951    -0.085241     0.157067
H      4.051706    -0.136687    -0.929107
H      2.772483     2.661629    -1.563857
3
Frame 183, t=0.092 ps, E=0.160493 Ha, T=270852.1 K
O     -0.432315    -0.085696     0.157928
H      4.069805    -0.140681    -0.934246
H      2.791913     2.672844    -1.572392
3
Frame 184, t=0.092 ps, E=0.159496 Ha, T=270921.9 K
O     -0.434680    -0.086151     0.158790
H      4.087907    -0.144680    -0.939384
H      2.811343     2.684063    -1.580928
3
Frame 185, t=0.093 ps, E=0.158505 Ha, T=270991.4 K
O     -0.437045    -0.086606     0.159651
H      4.106013    -0.148683    -0.944522
H      2.830771     2.695289    -1.589466
3
Frame 186, t=0.093 ps, E=0.157537 Ha, T=271059.2 K
O     -0.439410    -0.087061     0.160513
H      4.124123    -0.152691    -0.949659
H      2.850199     2.706519    -1.598005
3
Frame 187, t=0.094 ps, E=0.156605 Ha, T=271124.6 K
O     -0.441775    -0.087516     0.161375
H      4.142235    -0.156703    -0.954795
H      2.869626     2.717755    -1.606546
3
Frame 188, t=0.095 ps, E=0.155716 Ha, T=271187.0 K
O     -0.444140    -0.087971     0.162236
H      4.160351    -0.160719    -0.959931
H      2.889051     2.728996    -1.615088
3
Frame 189, t=0.095 ps, E=0.154872 Ha, T=271246.2 K
O     -0.446505    -0.088426     0.163098
H      4.178469    -0.164740    -0.965065
H      2.908476     2.740242    -1.623632
3
Frame 190, t=0.096 ps, E=0.154072 Ha, T=271302.4 K
O     -0.448871    -0.088881     0.163960
H      4.196591    -0.168766    -0.970199
H      2.927899     2.751494    -1.632178
3
Frame 191, t=0.096 ps, E=0.153311 Ha, T=271355.8 K
O     -0.451236    -0.089337     0.164822
H      4.214715    -0.172797    -0.975332
H      2.947320     2.762751    -1.640725
3
Frame 192, t=0.097 ps, E=0.152584 Ha, T=271406.9 K
O     -0.453602    -0.089792     0.165684
H      4.232842    -0.176832    -0.980464
H      2.966740     2.774013    -1.649273
3
Frame 193, t=0.097 ps, E=0.151883 Ha, T=271456.1 K
O     -0.455968    -0.090247     0.166546
H      4.250972    -0.180873    -0.985595
H      2.986159     2.785280    -1.657822
3
Frame 194, t=0.098 ps, E=0.151204 Ha, T=271503.8 K
O     -0.458333    -0.090703     0.167408
H      4.269104    -0.184918    -0.990725
H      3.005576     2.796553    -1.666373
3
Frame 195, t=0.098 ps, E=0.150541 Ha, T=271550.3 K
O     -0.460699    -0.091158     0.168270
H      4.287238    -0.188967    -0.995854
H      3.024991     2.807830    -1.674925
3
Frame 196, t=0.099 ps, E=0.149891 Ha, T=271595.9 K
O     -0.463065    -0.091613     0.169132
H      4.305375    -0.193022    -1.000982
H      3.044404     2.819112    -1.683478
3
Frame 197, t=0.099 ps, E=0.149252 Ha, T=271640.8 K
O     -0.465431    -0.092069     0.169994
H      4.323514    -0.197080    -1.006109
H      3.063816     2.830399    -1.692032
3
Frame 198, t=0.100 ps, E=0.148621 Ha, T=271685.1 K
O     -0.467797    -0.092524     0.170856
H      4.341655    -0.201144    -1.011236
H      3.083226     2.841691    -1.700587
3
Frame 199, t=0.100 ps, E=0.147998 Ha, T=271728.8 K
O     -0.470163    -0.092980     0.171718
H      4.359799    -0.205211    -1.016361
H      3.102635     2.852987    -1.709144
3
Frame 200, t=0.101 ps, E=0.147382 Ha, T=271772.0 K
O     -0.472529    -0.093435     0.172580
H      4.377944    -0.209283    -1.021486
H      3.122043     2.864287    -1.717702
3
Frame 201, t=0.101 ps, E=0.146774 Ha, T=271814.6 K
O     -0.474895    -0.093891     0.173442
H      4.396092    -0.213358    -1.026610
H      3.141449     2.875592    -1.726260
3
Frame 202, t=0.102 ps, E=0.146172 Ha, T=271856.9 K
O     -0.477261    -0.094346     0.174304
H      4.414242    -0.217438    -1.031733
H      3.160854     2.886901    -1.734820
3
Frame 203, t=0.102 ps, E=0.145574 Ha, T=271898.9 K
O     -0.479627    -0.094802     0.175166
H      4.432393    -0.221521    -1.036855
H      3.180257     2.898214    -1.743381
3
Frame 204, t=0.102 ps, E=0.144978 Ha, T=271940.8 K
O     -0.481993    -0.095257     0.176028
H      4.450547    -0.225609    -1.041976
H      3.199660     2.909531    -1.751943
3
Frame 205, t=0.103 ps, E=0.144380 Ha, T=271982.7 K
O     -0.484359    -0.095713     0.176890
H      4.468703    -0.229700    -1.047097
H      3.219061     2.920852    -1.760506
3
Frame 206, t=0.103 ps, E=0.143777 Ha, T=272025.1 K
O     -0.486726    -0.096168     0.177752
H      4.486860    -0.233795    -1.052217
H      3.238461     2.932178    -1.769070
3
Frame 207, t=0.104 ps, E=0.143166 Ha, T=272068.0 K
O     -0.489092    -0.096624     0.178614
H      4.505020    -0.237893    -1.057337
H      3.257860     2.943507    -1.777635
3
Frame 208, t=0.104 ps, E=0.142543 Ha, T=272111.7 K
O     -0.491458    -0.097079     0.179477
H      4.523181    -0.241996    -1.062455
H      3.277258     2.954840    -1.786201
3
Frame 209, t=0.105 ps, E=0.141905 Ha, T=272156.5 K
O     -0.493825    -0.097535     0.180339
H      4.541345    -0.246102    -1.067573
H      3.296655     2.966178    -1.794768
3
Frame 210, t=0.105 ps, E=0.141250 Ha, T=272202.4 K
O     -0.496191    -0.097990     0.181201
H      4.559510    -0.250213    -1.072690
H      3.316050     2.977520    -1.803336
3
Frame 211, t=0.106 ps, E=0.140577 Ha, T=272249.7 K
O     -0.498558    -0.098446     0.182063
H      4.577678    -0.254328    -1.077806
H      3.335444     2.988866    -1.811905
3
Frame 212, t=0.106 ps, E=0.139883 Ha, T=272298.4 K
O     -0.500924    -0.098902     0.182925
H      4.595847    -0.258447    -1.082921
H      3.354836     3.000218    -1.820476
3
Frame 213, t=0.107 ps, E=0.139169 Ha, T=272348.5 K
O     -0.503291    -0.099357     0.183788
H      4.614019    -0.262571    -1.088035
H      3.374228     3.011573    -1.829048
3
Frame 214, t=0.107 ps, E=0.138433 Ha, T=272400.1 K
O     -0.505658    -0.099813     0.184650
H      4.632193    -0.266700    -1.093148
H      3.393617     3.022934    -1.837620
3
Frame 215, t=0.108 ps, E=0.137676 Ha, T=272453.3 K
O     -0.508024    -0.100269     0.185512
H      4.650370    -0.270833    -1.098261
H      3.413005     3.034301    -1.846195
3
Frame 216, t=0.108 ps, E=0.136896 Ha, T=272508.0 K
O     -0.510391    -0.100724     0.186375
H      4.668548    -0.274972    -1.103372
H      3.432392     3.045672    -1.854770
3
Frame 217, t=0.109 ps, E=0.136093 Ha, T=272564.3 K
O     -0.512758    -0.101180     0.187237
H      4.686729    -0.279116    -1.108482
H      3.451777     3.057049    -1.863347
3
Frame 218, t=0.110 ps, E=0.135268 Ha, T=272622.3 K
O     -0.515125    -0.101636     0.188099
H      4.704913    -0.283266    -1.113591
H      3.471160     3.068432    -1.871925
3
Frame 219, t=0.110 ps, E=0.134418 Ha, T=272681.9 K
O     -0.517492    -0.102092     0.188962
H      4.723099    -0.287421    -1.118699
H      3.490541     3.079821    -1.880505
3
Frame 220, t=0.111 ps, E=0.133544 Ha, T=272743.2 K
O     -0.519859    -0.102547     0.189824
H      4.741288    -0.291583    -1.123805
H      3.509920     3.091216    -1.889086
3
Frame 221, t=0.111 ps, E=0.132646 Ha, T=272806.3 K
O     -0.522226    -0.103003     0.190686
H      4.759479    -0.295750    -1.128911
H      3.529298     3.102617    -1.897669
3
Frame 222, t=0.112 ps, E=0.131723 Ha, T=272871.0 K
O     -0.524593    -0.103459     0.191549
H      4.777673    -0.299924    -1.134014
H      3.548673     3.114025    -1.906253
3
Frame 223, t=0.112 ps, E=0.130778 Ha, T=272937.3 K
O     -0.526960    -0.103915     0.192411
H      4.795870    -0.304105    -1.139117
H      3.568046     3.125440    -1.914839
3
Frame 224, t=0.113 ps, E=0.129810 Ha, T=273005.2 K
O     -0.529327    -0.104370     0.193274
H      4.814069    -0.308292    -1.144218
H      3.587418     3.136862    -1.923427
3
Frame 225, t=0.113 ps, E=0.128824 Ha, T=273074.4 K
O     -0.531694    -0.104826     0.194136
H      4.832272    -0.312486    -1.149318
H      3.606787     3.148291    -1.932016
3
Frame 226, t=0.114 ps, E=0.127822 Ha, T=273144.7 K
O     -0.534061    -0.105282     0.194999
H      4.850477    -0.316687    -1.154416
H      3.626153     3.159727    -1.940607
3
Frame 227, t=0.114 ps, E=0.126810 Ha, T=273215.6 K
O     -0.536428    -0.105738     0.195861
H      4.868685    -0.320896    -1.159512
H      3.645518     3.171171    -1.949200
3
Frame 228, t=0.115 ps, E=0.125793 Ha, T=273287.0 K
O     -0.538796    -0.106194     0.196724
H      4.886897    -0.325112    -1.164607
H      3.664880     3.182622    -1.957795
3
Frame 229, t=0.115 ps, E=0.124777 Ha, T=273358.2 K
O     -0.541163    -0.106650     0.197586
H      4.905111    -0.329336    -1.169700
H      3.684240     3.194081    -1.966391
3
Frame 230, t=0.116 ps, E=0.123769 Ha, T=273429.0 K
O     -0.543530    -0.107106     0.198449
H      4.923328    -0.333567    -1.174792
H      3.703597     3.205548    -1.974990
3
Frame 231, t=0.116 ps, E=0.122773 Ha, T=273498.8 K
O     -0.545898    -0.107561     0.199311
H      4.941548    -0.337806    -1.179882
H      3.722952     3.217023    -1.983590
3
Frame 232, t=0.117 ps, E=0.121794 Ha, T=273567.5 K
O     -0.548265    -0.108017     0.200174
H      4.959772    -0.342051    -1.184971
H      3.742305     3.228505    -1.992192
3
Frame 233, t=0.117 ps, E=0.120836 Ha, T=273634.7 K
O     -0.550633    -0.108473     0.201036
H      4.977998    -0.346305    -1.190058
H      3.761656     3.239994    -2.000796
3
Frame 234, t=0.117 ps, E=0.119903 Ha, T=273700.2 K
O     -0.553000    -0.108929     0.201899
H      4.996226    -0.350565    -1.195144
H      3.781004     3.251491    -2.009401
3
Frame 235, t=0.118 ps, E=0.118994 Ha, T=273764.0 K
O     -0.555368    -0.109385     0.202762
H      5.014458    -0.354832    -1.200228
H      3.800351     3.262995    -2.018008
3
Frame 236, t=0.118 ps, E=0.118109 Ha, T=273826.0 K
O     -0.557735    -0.109841     0.203624
H      5.032692    -0.359106    -1.205310
H      3.819695     3.274506    -2.026617
3
Frame 237, t=0.119 ps, E=0.117248 Ha, T=273886.5 K
O     -0.560103    -0.110297     0.204487
H      5.050928    -0.363386    -1.210392
H      3.839038     3.286023    -2.035228
3
Frame 238, t=0.119 ps, E=0.116407 Ha, T=273945.5 K
O     -0.562471    -0.110753     0.205349
H      5.069167    -0.367673    -1.215472
H      3.858379     3.297547    -2.043840
3
Frame 239, t=0.120 ps, E=0.115585 Ha, T=274003.2 K
O     -0.564838    -0.111209     0.206212
H      5.087408    -0.371966    -1.220550
H      3.877718     3.309077    -2.052453
3
Frame 240, t=0.120 ps, E=0.114780 Ha, T=274059.7 K
O     -0.567206    -0.111665     0.207075
H      5.105652    -0.376264    -1.225628
H      3.897055     3.320613    -2.061068
3
Frame 241, t=0.121 ps, E=0.113988 Ha, T=274115.3 K
O     -0.569574    -0.112121     0.207937
H      5.123898    -0.380569    -1.230704
H      3.916391     3.332155    -2.069684
3
Frame 242, t=0.121 ps, E=0.113208 Ha, T=274170.1 K
O     -0.571942    -0.112577     0.208800
H      5.142146    -0.384879    -1.235779
H      3.935725     3.343703    -2.078302
3
Frame 243, t=0.122 ps, E=0.112439 Ha, T=274224.0 K
O     -0.574309    -0.113033     0.209663
H      5.160396    -0.389195    -1.240853
H      3.955057     3.355257    -2.086921
3
Frame 244, t=0.122 ps, E=0.111680 Ha, T=274277.3 K
O     -0.576677    -0.113489     0.210526
H      5.178648    -0.393516    -1.245925
H      3.974388     3.366817    -2.095542
3
Frame 245, t=0.123 ps, E=0.110930 Ha, T=274329.9 K
O     -0.579045    -0.113945     0.211388
H      5.196902    -0.397843    -1.250997
H      3.993718     3.378382    -2.104164
3
Frame 246, t=0.123 ps, E=0.110189 Ha, T=274381.9 K
O     -0.581413    -0.114401     0.212251
H      5.215159    -0.402175    -1.256067
H      4.013046     3.389952    -2.112787
3
Frame 247, t=0.124 ps, E=0.109457 Ha, T=274433.3 K
O     -0.583781    -0.114857     0.213114
H      5.233417    -0.406512    -1.261137
H      4.032373     3.401528    -2.121411
3
Frame 248, t=0.124 ps, E=0.108730 Ha, T=274484.3 K
O     -0.586149    -0.115313     0.213977
H      5.251677    -0.410854    -1.266205
H      4.051698     3.413109    -2.130037
3
Frame 249, t=0.125 ps, E=0.108007 Ha, T=274535.1 K
O     -0.588517    -0.115769     0.214839
H      5.269940    -0.415201    -1.271272
H      4.071022     3.424696    -2.138664
3
Frame 250, t=0.126 ps, E=0.107284 Ha, T=274585.9 K
O     -0.590885    -0.116225     0.215702
H      5.288204    -0.419554    -1.276338
H      4.090344     3.436287    -2.147292
3
Frame 251, t=0.126 ps, E=0.106555 Ha, T=274637.1 K
O     -0.593254    -0.116682     0.216565
H      5.306470    -0.423912    -1.281403
H      4.109666     3.447884    -2.155922
3
Frame 252, t=0.127 ps, E=0.105813 Ha, T=274689.1 K
O     -0.595622    -0.117138     0.217428
H      5.324738    -0.428274    -1.286468
H      4.128985     3.459487    -2.164553
3
Frame 253, t=0.127 ps, E=0.105054 Ha, T=274742.5 K
O     -0.597990    -0.117594     0.218291
H      5.343008    -0.432642    -1.291530
H      4.148304     3.471094    -2.173185
3
Frame 254, t=0.128 ps, E=0.104269 Ha, T=274797.6 K
O     -0.600358    -0.118050     0.219154
H      5.361279    -0.437015    -1.296592
H      4.167621     3.482707    -2.181818
3
Frame 255, t=0.128 ps, E=0.103451 Ha, T=274855.0 K
O     -0.602727    -0.118506     0.220016
H      5.379553    -0.441394    -1.301653
H      4.186937     3.494326    -2.190453
3
Frame 256, t=0.129 ps, E=0.102595 Ha, T=274915.1 K
O     -0.605095    -0.118962     0.220879
H      5.397829    -0.445778    -1.306712
H      4.206251     3.505950    -2.199089
3
Frame 257, t=0.129 ps, E=0.101696 Ha, T=274978.2 K
O     -0.607463    -0.119418     0.221742
H      5.416107    -0.450169    -1.311771
H      4.225563     3.517581    -2.207726
3
Frame 258, t=0.130 ps, E=0.100750 Ha, T=275044.6 K
O     -0.609832    -0.119875     0.222605
H      5.434387    -0.454565    -1.316827
H      4.244874     3.529218    -2.216365
3
Frame 259, t=0.130 ps, E=0.099757 Ha, T=275114.3 K
O     -0.612200    -0.120331     0.223468
H      5.452669    -0.458969    -1.321883
H      4.264183     3.540862    -2.225006
3
Frame 260, t=0.131 ps, E=0.098716 Ha, T=275187.3 K
O     -0.614568    -0.120787     0.224331
H      5.470954    -0.463380    -1.326937
H      4.283490     3.552513    -2.233649
3
Frame 261, t=0.131 ps, E=0.097630 Ha, T=275263.5 K
O     -0.616937    -0.121243     0.225194
H      5.489241    -0.467798    -1.331989
H      4.302795     3.564172    -2.242293
3
Frame 262, t=0.132 ps, E=0.096502 Ha, T=275342.6 K
O     -0.619305    -0.121699     0.226057
H      5.507531    -0.472224    -1.337040
H      4.322099     3.575839    -2.250939
3
Frame 263, t=0.132 ps, E=0.095337 Ha, T=275424.4 K
O     -0.621674    -0.122156     0.226920
H      5.525824    -0.476658    -1.342088
H      4.341399     3.587514    -2.259587
3
Frame 264, t=0.133 ps, E=0.094139 Ha, T=275508.4 K
O     -0.624042    -0.122612     0.227783
H      5.544119    -0.481101    -1.347135
H      4.360698     3.599198    -2.268237
3
Frame 265, t=0.133 ps, E=0.092913 Ha, T=275594.4 K
O     -0.626411    -0.123068     0.228646
H      5.562418    -0.485552    -1.352180
H      4.379994     3.610891    -2.276889
3
Frame 266, t=0.134 ps, E=0.091663 Ha, T=275682.1 K
O     -0.628780    -0.123524     0.229509
H      5.580719    -0.490013    -1.357223
H      4.399288     3.622594    -2.285544
3
Frame 267, t=0.134 ps, E=0.090391 Ha, T=275771.4 K
O     -0.631148    -0.123981     0.230372
H      5.599023    -0.494483    -1.362264
H      4.418579     3.634305    -2.294200
3
Frame 268, t=0.135 ps, E=0.089098 Ha, T=275862.0 K
O     -0.633517    -0.124437     0.231235
H      5.617330    -0.498962    -1.367303
H      4.437868     3.646026    -2.302859
3
Frame 269, t=0.135 ps, E=0.087786 Ha, T=275954.2 K
O     -0.635886    -0.124893     0.232098
H      5.635640    -0.503452    -1.372340
H      4.457154     3.657757    -2.311520
3
Frame 270, t=0.136 ps, E=0.086451 Ha, T=276047.8 K
O     -0.638255    -0.125349     0.232961
H      5.653954    -0.507950    -1.377375
H      4.476438     3.669498    -2.320184
3
Frame 271, t=0.136 ps, E=0.085093 Ha, T=276143.2 K
O     -0.640623    -0.125806     0.233824
H      5.672270    -0.512459    -1.382407
H      4.495719     3.681249    -2.328849
3
Frame 272, t=0.137 ps, E=0.083707 Ha, T=276240.4 K
O     -0.642992    -0.126262     0.234687
H      5.690589    -0.516978    -1.387438
H      4.514998     3.693011    -2.337517
3
Frame 273, t=0.137 ps, E=0.082292 Ha, T=276339.7 K
O     -0.645361    -0.126718     0.235550
H      5.708912    -0.521507    -1.392466
H      4.534274     3.704782    -2.346188
3
Frame 274, t=0.138 ps, E=0.080846 Ha, T=276441.2 K
O     -0.647730    -0.127175     0.236413
H      5.727238    -0.526047    -1.397492
H      4.553547     3.716565    -2.354861
3
Frame 275, t=0.138 ps, E=0.079366 Ha, T=276545.0 K
O     -0.650099    -0.127631     0.237276
H      5.745567    -0.530598    -1.402515
H      4.572817     3.728358    -2.363536
3
Frame 276, t=0.139 ps, E=0.077854 Ha, T=276651.2 K
O     -0.652468    -0.128087     0.238139
H      5.763899    -0.535159    -1.407536
H      4.592084     3.740162    -2.372214
3
Frame 277, t=0.139 ps, E=0.076308 Ha, T=276759.6 K
O     -0.654837    -0.128544     0.239002
H      5.782235    -0.539732    -1.412555
H      4.611349     3.751978    -2.380895
3
Frame 278, t=0.140 ps, E=0.074732 Ha, T=276870.2 K
O     -0.657206    -0.129000     0.239865
H      5.800574    -0.544317    -1.417571
H      4.630611     3.763805    -2.389578
3
Frame 279, t=0.140 ps, E=0.073128 Ha, T=276982.7 K
O     -0.659575    -0.129456     0.240729
H      5.818916    -0.548913    -1.422584
H      4.649869     3.775645    -2.398264
3
Frame 280, t=0.141 ps, E=0.071498 Ha, T=277097.1 K
O     -0.661944    -0.129913     0.241592
H      5.837262    -0.553521    -1.427595
H      4.669125     3.787496    -2.406953
3
Frame 281, t=0.141 ps, E=0.069846 Ha, T=277213.0 K
O     -0.664313    -0.130369     0.242455
H      5.855612    -0.558141    -1.432603
H      4.688377     3.799360    -2.415645
3
Frame 282, t=0.141 ps, E=0.068173 Ha, T=277330.4 K
O     -0.666682    -0.130825     0.243318
H      5.873965    -0.562774    -1.437608
H      4.707626     3.811236    -2.424340
3
Frame 283, t=0.142 ps, E=0.066482 Ha, T=277449.1 K
O     -0.669051    -0.131282     0.244181
H      5.892322    -0.567419    -1.442611
H      4.726873     3.823125    -2.433037
3
Frame 284, t=0.142 ps, E=0.064774 Ha, T=277568.9 K
O     -0.671420    -0.131738     0.245044
H      5.910682    -0.572077    -1.447611
H      4.746115     3.835027    -2.441738
3
Frame 285, t=0.143 ps, E=0.063051 Ha, T=277689.8 K
O     -0.673789    -0.132194     0.245907
H      5.929046    -0.576748    -1.452608
H      4.765355     3.846941    -2.450441
3
Frame 286, t=0.143 ps, E=0.061314 Ha, T=277811.7 K
O     -0.676159    -0.132651     0.246771
H      5.947414    -0.581432    -1.457602
H      4.784592     3.858869    -2.459148
3
Frame 287, t=0.144 ps, E=0.059565 Ha, T=277934.4 K
O     -0.678528    -0.133107     0.247634
H      5.965785    -0.586128    -1.462594
H      4.803825     3.870809    -2.467857
3
Frame 288, t=0.144 ps, E=0.057809 Ha, T=278057.6 K
O     -0.680897    -0.133564     0.248497
H      5.984160    -0.590838    -1.467582
H      4.823055     3.882763    -2.476570
3
Frame 289, t=0.145 ps, E=0.056052 Ha, T=278180.9 K
O     -0.683266    -0.134020     0.249360
H      6.002539    -0.595561    -1.472568
H      4.842282     3.894730    -2.485285
3
Frame 290, t=0.145 ps, E=0.054301 Ha, T=278303.7 K
O     -0.685636    -0.134476     0.250224
H      6.020921    -0.600296    -1.477550
H      4.861506     3.906710    -2.494004
3
Frame 291, t=0.146 ps, E=0.052568 Ha, T=278425.2 K
O     -0.688005    -0.134933     0.251087
H      6.039307    -0.605045    -1.482530
H      4.880726     3.918704    -2.502725
3
Frame 292, t=0.146 ps, E=0.050867 Ha, T=278544.4 K
O     -0.690374    -0.135389     0.251950
H      6.057696    -0.609807    -1.487507
H      4.899944     3.930710    -2.511450
3
Frame 293, t=0.147 ps, E=0.049215 Ha, T=278660.2 K
O     -0.692744    -0.135846     0.252813
H      6.076089    -0.614582    -1.492481
H      4.919158     3.942730    -2.520178
3
Frame 294, t=0.147 ps, E=0.047630 Ha, T=278771.4 K
O     -0.695113    -0.136302     0.253677
H      6.094485    -0.619370    -1.497453
H      4.938369     3.954762    -2.528908
3
Frame 295, t=0.148 ps, E=0.046129 Ha, T=278876.6 K
O     -0.697483    -0.136759     0.254540
H      6.112885    -0.624169    -1.502421
H      4.957577     3.966806    -2.537641
3
Frame 296, t=0.148 ps, E=0.044730 Ha, T=278974.7 K
O     -0.699852    -0.137215     0.255403
H      6.131288    -0.628979    -1.507388
H      4.976783     3.978862    -2.546377
3
Frame 297, t=0.149 ps, E=0.043449 Ha, T=279064.5 K
O     -0.702222    -0.137672     0.256266
H      6.149693    -0.633801    -1.512351
H      4.995986     3.990928    -2.555116
3
Frame 298, t=0.149 ps, E=0.042298 Ha, T=279145.2 K
O     -0.704591    -0.138128     0.257130
H      6.168102    -0.638632    -1.517313
H      5.015187     4.003005    -2.563856
3
Frame 299, t=0.150 ps, E=0.041286 Ha, T=279216.2 K
O     -0.706961    -0.138585     0.257993
H      6.186512    -0.643472    -1.522273
H      5.034386     4.015090    -2.572599
3
Frame 300, t=0.150 ps, E=0.040414 Ha, T=279277.4 K
O     -0.709330    -0.139041     0.258856
H      6.204925    -0.648320    -1.527231
H      5.053583     4.027183    -2.581344
3
Frame 301, t=0.151 ps, E=0.039682 Ha, T=279328.8 K
O     -0.711700    -0.139498     0.259720
H      6.223340    -0.653174    -1.532188
H      5.072779     4.039283    -2.590090
3
Frame 302, t=0.151 ps, E=0.039083 Ha, T=279370.9 K
O     -0.714070    -0.139954     0.260583
H      6.241756    -0.658034    -1.537143
H      5.091973     4.051388    -2.598837
3
Frame 303, t=0.152 ps, E=0.038606 Ha, T=279404.4 K
O     -0.716439    -0.140411     0.261446
H      6.260174    -0.662898    -1.542098
H      5.111167     4.063499    -2.607586
3
Frame 304, t=0.152 ps, E=0.038238 Ha, T=279430.4 K
O     -0.718809    -0.140867     0.262310
H      6.278593    -0.667766    -1.547052
H      5.130359     4.075612    -2.616335
3
Frame 305, t=0.153 ps, E=0.037963 Ha, T=279449.8 K
O     -0.721179    -0.141324     0.263173
H      6.297012    -0.672637    -1.552005
H      5.149552     4.087729    -2.625085
3
Frame 306, t=0.153 ps, E=0.037764 Ha, T=279463.8 K
O     -0.723548    -0.141780     0.264037
H      6.315433    -0.677510    -1.556958
H      5.168744     4.099848    -2.633836
3
Frame 307, t=0.154 ps, E=0.037626 Ha, T=279473.6 K
O     -0.725918    -0.142237     0.264900
H      6.333853    -0.682383    -1.561911
H      5.187936     4.111967    -2.642587
3
Frame 308, t=0.154 ps, E=0.037533 Ha, T=279480.2 K
O     -0.728288    -0.142693     0.265763
H      6.352275    -0.687258    -1.566863
H      5.207127     4.124088    -2.651338
3
Frame 309, t=0.155 ps, E=0.037472 Ha, T=279484.6 K
O     -0.730658    -0.143150     0.266627
H      6.370696    -0.692133    -1.571816
H      5.226319     4.136209    -2.660089
3
Frame 310, t=0.155 ps, E=0.037426 Ha, T=279487.9 K
O     -0.733027    -0.143606     0.267490
H      6.389118    -0.697008    -1.576768
H      5.245511     4.148330    -2.668841
3
Frame 311, t=0.156 ps, E=0.037380 Ha, T=279491.1 K
O     -0.735397    -0.144063     0.268354
H      6.407540    -0.701882    -1.581721
H      5.264704     4.160451    -2.677592
3
Frame 312, t=0.157 ps, E=0.037335 Ha, T=279494.3 K
O     -0.737767    -0.144519     0.269217
H      6.425962    -0.706757    -1.586674
H      5.283896     4.172572    -2.686343
3
Frame 313, t=0.157 ps, E=0.037290 Ha, T=279497.4 K
O     -0.740137    -0.144976     0.270080
H      6.444384    -0.711631    -1.591627
H      5.303089     4.184693    -2.695095
3
Frame 314, t=0.158 ps, E=0.037245 Ha, T=279500.6 K
O     -0.742507    -0.145433     0.270944
H      6.462806    -0.716505    -1.596580
H      5.322282     4.196814    -2.703846
3
Frame 315, t=0.158 ps, E=0.037201 Ha, T=279503.7 K
O     -0.744877    -0.145889     0.271807
H      6.481229    -0.721379    -1.601533
H      5.341475     4.208935    -2.712598
3
Frame 316, t=0.159 ps, E=0.037157 Ha, T=279506.8 K
O     -0.747247    -0.146346     0.272671
H      6.499652    -0.726252    -1.606487
H      5.360668     4.221055    -2.721349
3
Frame 317, t=0.159 ps, E=0.037113 Ha, T=279509.8 K
O     -0.749617    -0.146802     0.273534
H      6.518074    -0.731126    -1.611440
H      5.379861     4.233175    -2.730101
3
Frame 318, t=0.160 ps, E=0.037070 Ha, T=279512.9 K
O     -0.751987    -0.147259     0.274398
H      6.536497    -0.735999    -1.616393
H      5.399055     4.245296    -2.738853
3
Frame 319, t=0.160 ps, E=0.037027 Ha, T=279515.9 K
O     -0.754357    -0.147715     0.275261
H      6.554921    -0.740872    -1.621347
H      5.418249     4.257416    -2.747604
3
Frame 320, t=0.161 ps, E=0.036984 Ha, T=279518.9 K
O     -0.756727    -0.148172     0.276125
H      6.573344    -0.745745    -1.626301
H      5.437443     4.269536    -2.756356
3
Frame 321, t=0.161 ps, E=0.036941 Ha, T=279521.9 K
O     -0.759097    -0.148629     0.276988
H      6.591767    -0.750618    -1.631254
H      5.456637     4.281656    -2.765107
3
Frame 322, t=0.162 ps, E=0.036899 Ha, T=279524.9 K
O     -0.761467    -0.149085     0.277852
H      6.610191    -0.755490    -1.636208
H      5.475831     4.293776    -2.773859
3
Frame 323, t=0.162 ps, E=0.036856 Ha, T=279527.9 K
O     -0.763837    -0.149542     0.278715
H      6.628615    -0.760362    -1.641162
H      5.495026     4.305895    -2.782611
3
Frame 324, t=0.163 ps, E=0.036814 Ha, T=279530.8 K
O     -0.766207    -0.149999     0.279579
H      6.647039    -0.765234    -1.646116
H      5.514221     4.318015    -2.791362
3
Frame 325, t=0.163 ps, E=0.036773 Ha, T=279533.7 K
O     -0.768577    -0.150455     0.280442
H      6.665463    -0.770106    -1.651071
H      5.533416     4.330134    -2.800114
3
Frame 326, t=0.164 ps, E=0.036731 Ha, T=279536.6 K
O     -0.770948    -0.150912     0.281306
H      6.683887    -0.774978    -1.656025
H      5.552611     4.342254    -2.808866
3
Frame 327, t=0.164 ps, E=0.036690 Ha, T=279539.5 K
O     -0.773318    -0.151368     0.282169
H      6.702312    -0.779849    -1.660979
H      5.571806     4.354373    -2.817618
3
Frame 328, t=0.165 ps, E=0.036649 Ha, T=279542.4 K
O     -0.775688    -0.151825     0.283033
H      6.720736    -0.784721    -1.665934
H      5.591002     4.366492    -2.826369
3
Frame 329, t=0.165 ps, E=0.036609 Ha, T=279545.3 K
O     -0.778058    -0.152282     0.283896
H      6.739161    -0.789592    -1.670888
H      5.610197     4.378611    -2.835121
3
Frame 330, t=0.166 ps, E=0.036568 Ha, T=279548.1 K
O     -0.780428    -0.152738     0.284760
H      6.757586    -0.794463    -1.675843
H      5.629393     4.390730    -2.843873
3
Frame 331, t=0.166 ps, E=0.036528 Ha, T=279550.9 K
O     -0.782799    -0.153195     0.285623
H      6.776011    -0.799334    -1.680798
H      5.648589     4.402849    -2.852625
3
Frame 332, t=0.167 ps, E=0.036488 Ha, T=279553.7 K
O     -0.785169    -0.153652     0.286487
H      6.794436    -0.804204    -1.685753
H      5.667785     4.414968    -2.861377
3
Frame 333, t=0.167 ps, E=0.036448 Ha, T=279556.5 K
O     -0.787539    -0.154108     0.287351
H      6.812862    -0.809075    -1.690708
H      5.686981     4.427087    -2.870129
3
Frame 334, t=0.168 ps, E=0.036409 Ha, T=279559.3 K
O     -0.789910    -0.154565     0.288214
H      6.831287    -0.813945    -1.695663
H      5.706178     4.439205    -2.878880
3
Frame 335, t=0.168 ps, E=0.036369 Ha, T=279562.0 K
O     -0.792280    -0.155022     0.289078
H      6.849713    -0.818815    -1.700618
H      5.725375     4.451323    -2.887632
3
Frame 336, t=0.169 ps, E=0.036330 Ha, T=279564.8 K
O     -0.794650    -0.155478     0.289941
H      6.868139    -0.823685    -1.705573
H      5.744572     4.463442    -2.896384
3
Frame 337, t=0.169 ps, E=0.036291 Ha, T=279567.5 K
O     -0.797021    -0.155935     0.290805
H      6.886565    -0.828554    -1.710528
H      5.763769     4.475560    -2.905136
3
Frame 338, t=0.170 ps, E=0.036253 Ha, T=279570.2 K
O     -0.799391    -0.156392     0.291669
H      6.904991    -0.833424    -1.715484
H      5.782966     4.487678    -2.913888
3
Frame 339, t=0.170 ps, E=0.036215 Ha, T=279572.9 K
O     -0.801762    -0.156848     0.292532
H      6.923417    -0.838293    -1.720439
H      5.802163     4.499796    -2.922640
3
Frame 340, t=0.171 ps, E=0.036176 Ha, T=279575.6 K
O     -0.804132    -0.157305     0.293396
H      6.941843    -0.843163    -1.725395
H      5.821361     4.511914    -2.931392
3
Frame 341, t=0.171 ps, E=0.036138 Ha, T=279578.2 K
O     -0.806503    -0.157762     0.294260
H      6.960270    -0.848032    -1.730351
H      5.840558     4.524032    -2.940144
3
Frame 342, t=0.172 ps, E=0.036101 Ha, T=279580.9 K
O     -0.808873    -0.158219     0.295123
H      6.978696    -0.852900    -1.735307
H      5.859756     4.536150    -2.948896
3
Frame 343, t=0.172 ps, E=0.036063 Ha, T=279583.5 K
O     -0.811244    -0.158675     0.295987
H      6.997123    -0.857769    -1.740262
H      5.878954     4.548267    -2.957648
3
Frame 344, t=0.172 ps, E=0.036026 Ha, T=279586.1 K
O     -0.813614    -0.159132     0.296851
H      7.015550    -0.862638    -1.745218
H      5.898152     4.560385    -2.966400
3
Frame 345, t=0.173 ps, E=0.035989 Ha, T=279588.7 K
O     -0.815985    -0.159589     0.297714
H      7.033977    -0.867506    -1.750174
H      5.917351     4.572502    -2.975152
3
Frame 346, t=0.173 ps, E=0.035952 Ha, T=279591.3 K
O     -0.818355    -0.160045     0.298578
H      7.052405    -0.872374    -1.755131
H      5.936549     4.584619    -2.983904
3
Frame 347, t=0.174 ps, E=0.035915 Ha, T=279593.9 K
O     -0.820726    -0.160502     0.299442
H      7.070832    -0.877242    -1.760087
H      5.955748     4.596737    -2.992657
3
Frame 348, t=0.174 ps, E=0.035879 Ha, T=279596.5 K
O     -0.823096    -0.160959     0.300305
H      7.089260    -0.882110    -1.765043
H      5.974946     4.608854    -3.001409
3
Frame 349, t=0.175 ps, E=0.035842 Ha, T=279599.0 K
O     -0.825467    -0.161416     0.301169
H      7.107687    -0.886977    -1.770000
H      5.994145     4.620971    -3.010161
3
Frame 350, t=0.175 ps, E=0.035806 Ha, T=279601.5 K
O     -0.827838    -0.161872     0.302033
H      7.126115    -0.891845    -1.774956
H      6.013345     4.633088    -3.018913
3
Frame 351, t=0.176 ps, E=0.035771 Ha, T=279604.1 K
O     -0.830208    -0.162329     0.302896
H      7.144543    -0.896712    -1.779913
H      6.032544     4.645205    -3.027665
3
Frame 352, t=0.176 ps, E=0.035735 Ha, T=279606.6 K
O     -0.832579    -0.162786     0.303760
H      7.162971    -0.901580    -1.784869
H      6.051743     4.657321    -3.036417
3
Frame 353, t=0.177 ps, E=0.035699 Ha, T=279609.1 K
O     -0.834950    -0.163243     0.304624
H      7.181399    -0.906447    -1.789826
H      6.070943     4.669438    -3.045170
3
Frame 354, t=0.177 ps, E=0.035664 Ha, T=279611.5 K
O     -0.837320    -0.163699     0.305487
H      7.199828    -0.911313    -1.794783
H      6.090142     4.681555    -3.053922
3
Frame 355, t=0.178 ps, E=0.035629 Ha, T=279614.0 K
O     -0.839691    -0.164156     0.306351
H      7.218256    -0.916180    -1.799740
H      6.109342     4.693671    -3.062674
3
Frame 356, t=0.178 ps, E=0.035594 Ha, T=279616.4 K
O     -0.842062    -0.164613     0.307215
H      7.236685    -0.921047    -1.804697
H      6.128542     4.705787    -3.071426
3
Frame 357, t=0.179 ps, E=0.035559 Ha, T=279618.9 K
O     -0.844433    -0.165070     0.308079
H      7.255114    -0.925913    -1.809654
H      6.147742     4.717904    -3.080179
3
Frame 358, t=0.179 ps, E=0.035525 Ha, T=279621.3 K
O     -0.846803    -0.165526     0.308942
H      7.273542    -0.930779    -1.814611
H      6.166943     4.730020    -3.088931
3
Frame 359, t=0.180 ps, E=0.035491 Ha, T=279623.7 K
O     -0.849174    -0.165983     0.309806
H      7.291972    -0.935645    -1.819568
H      6.186143     4.742136    -3.097683
3
Frame 360, t=0.180 ps, E=0.035456 Ha, T=279626.1 K
O     -0.851545    -0.166440     0.310670
H      7.310401    -0.940511    -1.824526
H      6.205344     4.754252    -3.106436
3
Frame 361, t=0.181 ps, E=0.035422 Ha, T=279628.5 K
O     -0.853916    -0.166897     0.311534
H      7.328830    -0.945377    -1.829483
H      6.224544     4.766368    -3.115188
3
Frame 362, t=0.181 ps, E=0.035389 Ha, T=279630.9 K
O     -0.856287    -0.167354     0.312398
H      7.347259    -0.950243    -1.834440
H      6.243745     4.778484    -3.123940
3
Frame 363, t=0.182 ps, E=0.035355 Ha, T=279633.2 K
O     -0.858658    -0.167810     0.313261
H      7.365689    -0.955108    -1.839398
H      6.262946     4.790599    -3.132693
3
Frame 364, t=0.182 ps, E=0.035322 Ha, T=279635.6 K
O     -0.861029    -0.168267     0.314125
H      7.384119    -0.959974    -1.844356
H      6.282147     4.802715    -3.141445
3
Frame 365, t=0.183 ps, E=0.035288 Ha, T=279637.9 K
O     -0.863399    -0.168724     0.314989
H      7.402549    -0.964839    -1.849313
H      6.301349     4.814831    -3.150197
3
Frame 366, t=0.183 ps, E=0.035255 Ha, T=279640.2 K
O     -0.865770    -0.169181     0.315853
H      7.420979    -0.969704    -1.854271
H      6.320550     4.826946    -3.158950
3
Frame 367, t=0.184 ps, E=0.035222 Ha, T=279642.5 K
O     -0.868141    -0.169638     0.316716
H      7.439409    -0.974569    -1.859229
H      6.339752     4.839061    -3.167702
3
Frame 368, t=0.184 ps, E=0.035190 Ha, T=279644.8 K
O     -0.870512    -0.170094     0.317580
H      7.457839    -0.979434    -1.864187
H      6.358953     4.851177    -3.176455
3
Frame 369, t=0.185 ps, E=0.035157 Ha, T=279647.1 K
O     -0.872883    -0.170551     0.318444
H      7.476269    -0.984298    -1.869145
H      6.378155     4.863292    -3.185207
3
Frame 370, t=0.185 ps, E=0.035125 Ha, T=279649.4 K
O     -0.875254    -0.171008     0.319308
H      7.494700    -0.989163    -1.874103
H      6.397357     4.875407    -3.193960
3
Frame 371, t=0.186 ps, E=0.035093 Ha, T=279651.6 K
O     -0.877625    -0.171465     0.320172
H      7.513130    -0.994027    -1.879061
H      6.416559     4.887522    -3.202712
3
Frame 372, t=0.186 ps, E=0.035061 Ha, T=279653.9 K
O     -0.879996    -0.171922     0.321036
H      7.531561    -0.998891    -1.884020
H      6.435761     4.899637    -3.211465
3
Frame 373, t=0.187 ps, E=0.035029 Ha, T=279656.1 K
O     -0.882367    -0.172379     0.321899
H      7.549992    -1.003755    -1.888978
H      6.454964     4.911752    -3.220217
3
Frame 374, t=0.188 ps, E=0.034997 Ha, T=279658.3 K
O     -0.884738    -0.172835     0.322763
H      7.568423    -1.008619    -1.893936
H      6.474166     4.923867    -3.228970
3
Frame 375, t=0.188 ps, E=0.034965 Ha, T=279660.6 K
O     -0.887109    -0.173292     0.323627
H      7.586854    -1.013483    -1.898895
H      6.493369     4.935981    -3.237722
3
Frame 376, t=0.189 ps, E=0.034934 Ha, T=279662.8 K
O     -0.889481    -0.173749     0.324491
H      7.605285    -1.018346    -1.903854
H      6.512572     4.948096    -3.246475
3
Frame 377, t=0.189 ps, E=0.034903 Ha, T=279665.0 K
O     -0.891852    -0.174206     0.325355
H      7.623717    -1.023210    -1.908812
H      6.531774     4.960210    -3.255227
3
Frame 378, t=0.190 ps, E=0.034872 Ha, T=279667.1 K
O     -0.894223    -0.174663     0.326219
H      7.642148    -1.028073    -1.913771
H      6.550977     4.972325    -3.263980
3
Frame 379, t=0.190 ps, E=0.034841 Ha, T=279669.3 K
O     -0.896594    -0.175120     0.327083
H      7.660580    -1.032936    -1.918730
H      6.570181     4.984439    -3.272733
3
Frame 380, t=0.191 ps, E=0.034810 Ha, T=279671.5 K
O     -0.898965    -0.175576     0.327946
H      7.679012    -1.037799    -1.923689
H      6.589384     4.996553    -3.281485
3
Frame 381, t=0.191 ps, E=0.034779 Ha, T=279673.6 K
O     -0.901336    -0.176033     0.328810
H      7.697443    -1.042662    -1.928648
H      6.608587     5.008668    -3.290238
3
Frame 382, t=0.192 ps, E=0.034749 Ha, T=279675.7 K
O     -0.903707    -0.176490     0.329674
H      7.715875    -1.047525    -1.933607
H      6.627791     5.020782    -3.298991
3
Frame 383, t=0.192 ps, E=0.034719 Ha, T=279677.9 K
O     -0.906079    -0.176947     0.330538
H      7.734308    -1.052388    -1.938566
H      6.646994     5.032896    -3.307743
3
Frame 384, t=0.193 ps, E=0.034689 Ha, T=279680.0 K
O     -0.908450    -0.177404     0.331402
H      7.752740    -1.057250    -1.943525
H      6.666198     5.045010    -3.316496
3
Frame 385, t=0.193 ps, E=0.034659 Ha, T=279682.1 K
O     -0.910821    -0.177861     0.332266
H      7.771172    -1.062113    -1.948484
H      6.685402     5.057123    -3.325249
3
Frame 386, t=0.194 ps, E=0.034629 Ha, T=279684.2 K
O     -0.913192    -0.178318     0.333130
H      7.789605    -1.066975    -1.953443
H      6.704606     5.069237    -3.334001
3
Frame 387, t=0.194 ps, E=0.034599 Ha, T=279686.3 K
O     -0.915564    -0.178775     0.333994
H      7.808037    -1.071837    -1.958403
H      6.723810     5.081351    -3.342754
3
Frame 388, t=0.195 ps, E=0.034570 Ha, T=279688.3 K
O     -0.917935    -0.179231     0.334858
H      7.826470    -1.076699    -1.963362
H      6.743014     5.093465    -3.351507
3
Frame 389, t=0.195 ps, E=0.034540 Ha, T=279690.4 K
O     -0.920306    -0.179688     0.335722
H      7.844903    -1.081561    -1.968322
H      6.762219     5.105578    -3.360259
3
Frame 390, t=0.196 ps, E=0.034511 Ha, T=279692.4 K
O     -0.922677    -0.180145     0.336586
H      7.863336    -1.086423    -1.973281
H      6.781423     5.117691    -3.369012
3
Frame 391, t=0.196 ps, E=0.034482 Ha, T=279694.5 K
O     -0.925049    -0.180602     0.337449
H      7.881769    -1.091284    -1.978241
H      6.800628     5.129805    -3.377765
3
Frame 392, t=0.197 ps, E=0.034453 Ha, T=279696.5 K
O     -0.927420    -0.181059     0.338313
H      7.900202    -1.096146    -1.983201
H      6.819832     5.141918    -3.386518
3
Frame 393, t=0.197 ps, E=0.034424 Ha, T=279698.5 K
O     -0.929791    -0.181516     0.339177
H      7.918635    -1.101007    -1.988160
H      6.839037     5.154031    -3.395271
3
Frame 394, t=0.198 ps, E=0.034395 Ha, T=279700.6 K
O     -0.932163    -0.181973     0.340041
H      7.937069    -1.105868    -1.993120
H      6.858242     5.166145    -3.404023
3
Frame 395, t=0.198 ps, E=0.034367 Ha, T=279702.6 K
O     -0.934534    -0.182430     0.340905
H      7.955502    -1.110730    -1.998080
H      6.877447     5.178258    -3.412776
3
Frame 396, t=0.199 ps, E=0.034338 Ha, T=279704.6 K
O     -0.936906    -0.182887     0.341769
H      7.973936    -1.115591    -2.003040
H      6.896653     5.190371    -3.421529
3
Frame 397, t=0.199 ps, E=0.034310 Ha, T=279706.5 K
O     -0.939277    -0.183343     0.342633
H      7.992370    -1.120451    -2.008000
H      6.915858     5.202484    -3.430282
3
Frame 398, t=0.200 ps, E=0.034282 Ha, T=279708.5 K
O     -0.941648    -0.183800     0.343497
H      8.010803    -1.125312    -2.012960
H      6.935063     5.214596    -3.439035
3
Frame 399, t=0.200 ps, E=0.034254 Ha, T=279710.5 K
O     -0.944020    -0.184257     0.344361
H      8.029237    -1.130173    -2.017921
H      6.954269     5.226709    -3.447788
3
Frame 400, t=0.201 ps, E=0.034226 Ha, T=279712.4 K
O     -0.946391    -0.184714     0.345225
H      8.047672    -1.135033    -2.022881
H      6.973474     5.238822    -3.456540
3
Frame 401, t=0.201 ps, E=0.034198 Ha, T=279714.4 K
O     -0.948763    -0.185171     0.346089
H      8.066106    -1.139894    -2.027841
H      6.992680     5.250934    -3.465293
3
Frame 402, t=0.202 ps, E=0.034171 Ha, T=279716.3 K
O     -0.951134    -0.185628     0.346953
H      8.084540    -1.144754    -2.032802
H      7.011886     5.263047    -3.474046
3
Frame 403, t=0.202 ps, E=0.034143 Ha, T=279718.2 K
O     -0.953506    -0.186085     0.347817
H      8.102975    -1.149614    -2.037762
H      7.031092     5.275159    -3.482799
3
Frame 404, t=0.203 ps, E=0.034116 Ha, T=279720.2 K
O     -0.955877    -0.186542     0.348681
H      8.121409    -1.154474    -2.042723
H      7.050298     5.287272    -3.491552
3
Frame 405, t=0.203 ps, E=0.034089 Ha, T=279722.1 K
O     -0.958249    -0.186999     0.349545
H      8.139844    -1.159334    -2.047683
H      7.069504     5.299384    -3.500305
3
Frame 406, t=0.203 ps, E=0.034062 Ha, T=279724.0 K
O     -0.960620    -0.187456     0.350409
H      8.158279    -1.164194    -2.052644
H      7.088711     5.311496    -3.509058
3
Frame 407, t=0.204 ps, E=0.034035 Ha, T=279725.8 K
O     -0.962992    -0.187913     0.351273
H      8.176713    -1.169053    -2.057605
H      7.107917     5.323609    -3.517811
3
Frame 408, t=0.204 ps, E=0.034008 Ha, T=279727.7 K
O     -0.965363    -0.188370     0.352137
H      8.195148    -1.173913    -2.062565
H      7.127123     5.335721    -3.526564
3
Frame 409, t=0.205 ps, E=0.033981 Ha, T=279729.6 K
O     -0.967735    -0.188827     0.353001
H      8.213584    -1.178772    -2.067526
H      7.146330     5.347833    -3.535317
3
Frame 410, t=0.205 ps, E=0.033955 Ha, T=279731.5 K
O     -0.970107    -0.189284     0.353865
H      8.232019    -1.183632    -2.072487
H      7.165537     5.359945    -3.544070
3
Frame 411, t=0.206 ps, E=0.033928 Ha, T=279733.3 K
O     -0.972478    -0.189740     0.354729
H      8.250454    -1.188491    -2.077448
H      7.184744     5.372057    -3.552823
3
Frame 412, t=0.206 ps, E=0.033902 Ha, T=279735.2 K
O     -0.974850    -0.190197     0.355593
H      8.268890    -1.193350    -2.082409
H      7.203951     5.384168    -3.561576
3
Frame 413, t=0.207 ps, E=0.033876 Ha, T=279737.0 K
O     -0.977221    -0.190654     0.356457
H      8.287325    -1.198209    -2.087370
H      7.223158     5.396280    -3.570329
3
Frame 414, t=0.207 ps, E=0.033850 Ha, T=279738.8 K
O     -0.979593    -0.191111     0.357321
H      8.305761    -1.203068    -2.092332
H      7.242365     5.408392    -3.579082
3
Frame 415, t=0.208 ps, E=0.033824 Ha, T=279740.7 K
O     -0.981965    -0.191568     0.358185
H      8.324196    -1.207926    -2.097293
H      7.261572     5.420503    -3.587835
3
Frame 416, t=0.208 ps, E=0.033798 Ha, T=279742.5 K
O     -0.984336    -0.192025     0.359050
H      8.342632    -1.212785    -2.102254
H      7.280779     5.432615    -3.596588
3
Frame 417, t=0.209 ps, E=0.033772 Ha, T=279744.3 K
O     -0.986708    -0.192482     0.359914
H      8.361068    -1.217644    -2.107215
H      7.299987     5.444726    -3.605341
3
Frame 418, t=0.209 ps, E=0.033747 Ha, T=279746.1 K
O     -0.989080    -0.192939     0.360778
H      8.379504    -1.222502    -2.112177
H      7.319194     5.456838    -3.614094
3
Frame 419, t=0.210 ps, E=0.033721 Ha, T=279747.8 K
O     -0.991452    -0.193396     0.361642
H      8.397941    -1.227360    -2.117138
H      7.338402     5.468949    -3.622847
3
Frame 420, t=0.210 ps, E=0.033696 Ha, T=279749.6 K
O     -0.993823    -0.193853     0.362506
H      8.416377    -1.232218    -2.122100
H      7.357610     5.481060    -3.631601
3
Frame 421, t=0.211 ps, E=0.033671 Ha, T=279751.4 K
O     -0.996195    -0.194310     0.363370
H      8.434813    -1.237077    -2.127061
H      7.376818     5.493172    -3.640354
3
Frame 422, t=0.211 ps, E=0.033646 Ha, T=279753.2 K
O     -0.998567    -0.194767     0.364234
H      8.453250    -1.241935    -2.132023
H      7.396026     5.505283    -3.649107
3
Frame 423, t=0.212 ps, E=0.033621 Ha, T=279754.9 K
O     -1.000939    -0.195224     0.365098
H      8.471686    -1.246792    -2.136985
H      7.415234     5.517394    -3.657860
3
Frame 424, t=0.212 ps, E=0.033596 Ha, T=279756.7 K
O     -1.003310    -0.195681     0.365962
H      8.490123    -1.251650    -2.141947
H      7.434442     5.529505    -3.666613
3
Frame 425, t=0.213 ps, E=0.033571 Ha, T=279758.4 K
O     -1.005682    -0.196138     0.366826
H      8.508560    -1.256508    -2.146908
H      7.453650     5.541616    -3.675366
3
Frame 426, t=0.213 ps, E=0.033546 Ha, T=279760.1 K
O     -1.008054    -0.196595     0.367690
H      8.526997    -1.261365    -2.151870
H      7.472858     5.553726    -3.684119
3
Frame 427, t=0.214 ps, E=0.033522 Ha, T=279761.9 K
O     -1.010426    -0.197052     0.368554
H      8.545434    -1.266223    -2.156832
H      7.492067     5.565837    -3.692873
3
Frame 428, t=0.214 ps, E=0.033497 Ha, T=279763.6 K
O     -1.012798    -0.197509     0.369419
H      8.563871    -1.271080    -2.161794
H      7.511275     5.577948    -3.701626
3
Frame 429, t=0.215 ps, E=0.033473 Ha, T=279765.3 K
O     -1.015169    -0.197966     0.370283
H      8.582308    -1.275937    -2.166756
H      7.530484     5.590059    -3.710379
3
Frame 430, t=0.215 ps, E=0.033449 Ha, T=279767.0 K
O     -1.017541    -0.198423     0.371147
H      8.600745    -1.280794    -2.171719
H      7.549693     5.602169    -3.719132
3
Frame 431, t=0.216 ps, E=0.033425 Ha, T=279768.7 K
O     -1.019913    -0.198880     0.372011
H      8.619183    -1.285651    -2.176681
H      7.568902     5.614280    -3.727885
3
Frame 432, t=0.216 ps, E=0.033401 Ha, T=279770.3 K
O     -1.022285    -0.199337     0.372875
H      8.637620    -1.290508    -2.181643
H      7.588110     5.626390    -3.736639
3
Frame 433, t=0.217 ps, E=0.033377 Ha, T=279772.0 K
O     -1.024657    -0.199794     0.373739
H      8.656058    -1.295365    -2.186605
H      7.607319     5.638501    -3.745392
3
Frame 434, t=0.217 ps, E=0.033353 Ha, T=279773.7 K
O     -1.027029    -0.200251     0.374603
H      8.674496    -1.300222    -2.191568
H      7.626529     5.650611    -3.754145
3
Frame 435, t=0.218 ps, E=0.033329 Ha, T=279775.4 K
O     -1.029401    -0.200708     0.375467
H      8.692934    -1.305078    -2.196530
H      7.645738     5.662721    -3.762899
3
Frame 436, t=0.218 ps, E=0.033306 Ha, T=279777.0 K
O     -1.031773    -0.201165     0.376332
H      8.711371    -1.309935    -2.201493
H      7.664947     5.674831    -3.771652
3
Frame 437, t=0.219 ps, E=0.033282 Ha, T=279778.7 K
O     -1.034144    -0.201622     0.377196
H      8.729809    -1.314791    -2.206455
H      7.684156     5.686942    -3.780405
3
Frame 438, t=0.220 ps, E=0.033259 Ha, T=279780.3 K
O     -1.036516    -0.202079     0.378060
H      8.748248    -1.319648    -2.211418
H      7.703366     5.699052    -3.789158
3
Frame 439, t=0.220 ps, E=0.033236 Ha, T=279781.9 K
O     -1.038888    -0.202536     0.378924
H      8.766686    -1.324504    -2.216380
H      7.722576     5.711162    -3.797912
3
Frame 440, t=0.221 ps, E=0.033213 Ha, T=279783.6 K
O     -1.041260    -0.202993     0.379788
H      8.785124    -1.329360    -2.221343
H      7.741785     5.723272    -3.806665
3
Frame 441, t=0.221 ps, E=0.033189 Ha, T=279785.2 K
O     -1.043632    -0.203450     0.380652
H      8.803562    -1.334216    -2.226306
H      7.760995     5.735381    -3.815418
3
Frame 442, t=0.222 ps, E=0.033167 Ha, T=279786.8 K
O     -1.046004    -0.203907     0.381517
H      8.822001    -1.339072    -2.231269
H      7.780205     5.747491    -3.824172
3
Frame 443, t=0.222 ps, E=0.033144 Ha, T=279788.4 K
O     -1.048376    -0.204364     0.382381
H      8.840440    -1.343928    -2.236231
H      7.799415     5.759601    -3.832925
3
Frame 444, t=0.223 ps, E=0.033121 Ha, T=279790.0 K
O     -1.050748    -0.204821     0.383245
H      8.858878    -1.348783    -2.241194
H      7.818625     5.771711    -3.841678
3
Frame 445, t=0.223 ps, E=0.033098 Ha, T=279791.6 K
O     -1.053120    -0.205278     0.384109
H      8.877317    -1.353639    -2.246157
H      7.837835     5.783820    -3.850432
3
Frame 446, t=0.224 ps, E=0.033076 Ha, T=279793.2 K
O     -1.055492    -0.205735     0.384973
H      8.895756    -1.358495    -2.251120
H      7.857045     5.795930    -3.859185
3
Frame 447, t=0.224 ps, E=0.033053 Ha, T=279794.7 K
O     -1.057864    -0.206192     0.385837
H      8.914195    -1.363350    -2.256083
H      7.876255     5.808040    -3.867939
3
Frame 448, t=0.225 ps, E=0.033031 Ha, T=279796.3 K
O     -1.060237    -0.206649     0.386702
H      8.932634    -1.368205    -2.261047
H      7.895466     5.820149    -3.876692
3
Frame 449, t=0.225 ps, E=0.033009 Ha, T=279797.9 K
O     -1.062609    -0.207106     0.387566
H      8.951073    -1.373060    -2.266010
H      7.914676     5.832258    -3.885445
3
Frame 450, t=0.226 ps, E=0.032986 Ha, T=279799.4 K
O     -1.064981    -0.207563     0.388430
H      8.969512    -1.377916    -2.270973
H      7.933887     5.844368    -3.894199
3
Frame 451, t=0.226 ps, E=0.032964 Ha, T=279801.0 K
O     -1.067353    -0.208021     0.389294
H      8.987952    -1.382771    -2.275936
H      7.953097     5.856477    -3.902952
3
Frame 452, t=0.227 ps, E=0.032942 Ha, T=279802.5 K
O     -1.069725    -0.208478     0.390159
H      9.006391    -1.387626    -2.280900
H      7.972308     5.868586    -3.911706
3
Frame 453, t=0.227 ps, E=0.032920 Ha, T=279804.1 K
O     -1.072097    -0.208935     0.391023
H      9.024831    -1.392480    -2.285863
H      7.991519     5.880695    -3.920459
3
Frame 454, t=0.228 ps, E=0.032899 Ha, T=279805.6 K
O     -1.074469    -0.209392     0.391887
H      9.043270    -1.397335    -2.290826
H      8.010730     5.892804    -3.929212
3
Frame 455, t=0.228 ps, E=0.032877 Ha, T=279807.1 K
O     -1.076841    -0.209849     0.392751
H      9.061710    -1.402190    -2.295790
H      8.029941     5.904914    -3.937966
3
Frame 456, t=0.229 ps, E=0.032855 Ha, T=279808.6 K
O     -1.079213    -0.210306     0.393615
H      9.080150    -1.407044    -2.300753
H      8.049152     5.917023    -3.946719
3
Frame 457, t=0.229 ps, E=0.032834 Ha, T=279810.1 K
O     -1.081586    -0.210763     0.394480
H      9.098590    -1.411899    -2.305717
H      8.068363     5.929131    -3.955473
3
Frame 458, t=0.230 ps, E=0.032812 Ha, T=279811.7 K
O     -1.083958    -0.211220     0.395344
H      9.117030    -1.416753    -2.310681
H      8.087574     5.941240    -3.964226
3
Frame 459, t=0.230 ps, E=0.032791 Ha, T=279813.2 K
O     -1.086330    -0.211677     0.396208
H      9.135470    -1.421608    -2.315644
H      8.106785     5.953349    -3.972980
3
Frame 460, t=0.231 ps, E=0.032770 Ha, T=279814.6 K
O     -1.088702    -0.212134     0.397072
H      9.153910    -1.426462    -2.320608
H      8.125997     5.965458    -3.981733
3
Frame 461, t=0.231 ps, E=0.032748 Ha, T=279816.1 K
O     -1.091074    -0.212591     0.397937
H      9.172350    -1.431316    -2.325572
H      8.145208     5.977567    -3.990487
3
Frame 462, t=0.232 ps, E=0.032727 Ha, T=279817.6 K
O     -1.093447    -0.213048     0.398801
H      9.190791    -1.436170    -2.330536
H      8.164420     5.989675    -3.999240
3
Frame 463, t=0.232 ps, E=0.032706 Ha, T=279819.1 K
O     -1.095819    -0.213505     0.399665
H      9.209231    -1.441024    -2.335500
H      8.183631     6.001784    -4.007994
3
Frame 464, t=0.233 ps, E=0.032685 Ha, T=279820.5 K
O     -1.098191    -0.213962     0.400529
H      9.227672    -1.445878    -2.340464
H      8.202843     6.013892    -4.016748
3
Frame 465, t=0.233 ps, E=0.032665 Ha, T=279822.0 K
O     -1.100563    -0.214419     0.401394
H      9.246112    -1.450732    -2.345428
H      8.222055     6.026001    -4.025501
3
Frame 466, t=0.234 ps, E=0.032644 Ha, T=279823.5 K
O     -1.102936    -0.214876     0.402258
H      9.264553    -1.455585    -2.350392
H      8.241267     6.038109    -4.034255
3
Frame 467, t=0.234 ps, E=0.032623 Ha, T=279824.9 K
O     -1.105308    -0.215334     0.403122
H      9.282994    -1.460439    -2.355356
H      8.260479     6.050218    -4.043008
3
Frame 468, t=0.234 ps, E=0.032603 Ha, T=279826.4 K
O     -1.107680    -0.215791     0.403986
H      9.301435    -1.465292    -2.360320
H      8.279691     6.062326    -4.051762
3
Frame 469, t=0.235 ps, E=0.032582 Ha, T=279827.8 K
O     -1.110052    -0.216248     0.404851
H      9.319876    -1.470146    -2.365284
H      8.298903     6.074434    -4.060515
3
Frame 470, t=0.235 ps, E=0.032562 Ha, T=279829.2 K
O     -1.112425    -0.216705     0.405715
H      9.338317    -1.474999    -2.370249
H      8.318115     6.086542    -4.069269
3
Frame 471, t=0.236 ps, E=0.032541 Ha, T=279830.7 K
O     -1.114797    -0.217162     0.406579
H      9.356758    -1.479852    -2.375213
H      8.337327     6.098650    -4.078023
3
Frame 472, t=0.236 ps, E=0.032521 Ha, T=279832.1 K
O     -1.117169    -0.217619     0.407444
H      9.375199    -1.484705    -2.380177
H      8.356539     6.110759    -4.086776
3
Frame 473, t=0.237 ps, E=0.032501 Ha, T=279833.5 K
O     -1.119542    -0.218076     0.408308
H      9.393641    -1.489559    -2.385142
H      8.375752     6.122867    -4.095530
3
Frame 474, t=0.237 ps, E=0.032481 Ha, T=279834.9 K
O     -1.121914    -0.218533     0.409172
H      9.412082    -1.494412    -2.390106
H      8.394964     6.134975    -4.104283
3
Frame 475, t=0.238 ps, E=0.032461 Ha, T=279836.3 K
O     -1.124286    -0.218990     0.410036
H      9.430523    -1.499264    -2.395071
H      8.414177     6.147082    -4.113037
3
Frame 476, t=0.238 ps, E=0.032441 Ha, T=279837.7 K
O     -1.126659    -0.219447     0.410901
H      9.448965    -1.504117    -2.400035
H      8.433390     6.159190    -4.121791
3
Frame 477, t=0.239 ps, E=0.032421 Ha, T=279839.1 K
O     -1.129031    -0.219904     0.411765
H      9.467407    -1.508970    -2.405000
H      8.452602     6.171298    -4.130544
3
Frame 478, t=0.239 ps, E=0.032402 Ha, T=279840.5 K
O     -1.131404    -0.220362     0.412629
H      9.485848    -1.513823    -2.409964
H      8.471815     6.183406    -4.139298
3
Frame 479, t=0.240 ps, E=0.032382 Ha, T=279841.9 K
O     -1.133776    -0.220819     0.413494
H      9.504290    -1.518675    -2.414929
H      8.491028     6.195514    -4.148052
3
Frame 480, t=0.240 ps, E=0.032362 Ha, T=279843.2 K
O     -1.136148    -0.221276     0.414358
H      9.522732    -1.523528    -2.419894
H      8.510241     6.207621    -4.156805
3
Frame 481, t=0.241 ps, E=0.032343 Ha, T=279844.6 K
O     -1.138521    -0.221733     0.415222
H      9.541174    -1.528380    -2.424858
H      8.529454     6.219729    -4.165559
3
Frame 482, t=0.241 ps, E=0.032323 Ha, T=279846.0 K
O     -1.140893    -0.222190     0.416087
H      9.559616    -1.533232    -2.429823
H      8.548667     6.231836    -4.174313
3
Frame 483, t=0.242 ps, E=0.032304 Ha, T=279847.3 K
O     -1.143266    -0.222647     0.416951
H      9.578059    -1.538085    -2.434788
H      8.567880     6.243944    -4.183066
3
Frame 484, t=0.242 ps, E=0.032285 Ha, T=279848.7 K
O     -1.145638    -0.223104     0.417815
H      9.596501    -1.542937    -2.439753
H      8.587093     6.256051    -4.191820
3
Frame 485, t=0.243 ps, E=0.032265 Ha, T=279850.0 K
O     -1.148010    -0.223561     0.418680
H      9.614943    -1.547789    -2.444718
H      8.606307     6.268159    -4.200574
3
Frame 486, t=0.243 ps, E=0.032246 Ha, T=279851.4 K
O     -1.150383    -0.224018     0.419544
H      9.633386    -1.552641    -2.449683
H      8.625520     6.280266    -4.209328
3
Frame 487, t=0.244 ps, E=0.032227 Ha, T=279852.7 K
O     -1.152755    -0.224476     0.420408
H      9.651828    -1.557493    -2.454648
H      8.644733     6.292373    -4.218081
3
Frame 488, t=0.244 ps, E=0.032208 Ha, T=279854.0 K
O     -1.155128    -0.224933     0.421273
H      9.670271    -1.562345    -2.459613
H      8.663947     6.304481    -4.226835
3
Frame 489, t=0.245 ps, E=0.032189 Ha, T=279855.4 K
O     -1.157500    -0.225390     0.422137
H      9.688713    -1.567196    -2.464578
H      8.683160     6.316588    -4.235589
3
Frame 490, t=0.245 ps, E=0.032171 Ha, T=279856.7 K
O     -1.159873    -0.225847     0.423001
H      9.707156    -1.572048    -2.469544
H      8.702374     6.328695    -4.244343
3
Frame 491, t=0.246 ps, E=0.032152 Ha, T=279858.0 K
O     -1.162245    -0.226304     0.423866
H      9.725599    -1.576900    -2.474509
H      8.721588     6.340802    -4.253096
3
Frame 492, t=0.246 ps, E=0.032133 Ha, T=279859.3 K
O     -1.164618    -0.226761     0.424730
H      9.744042    -1.581751    -2.479474
H      8.740802     6.352909    -4.261850
3
Frame 493, t=0.247 ps, E=0.032115 Ha, T=279860.6 K
O     -1.166990    -0.227218     0.425594
H      9.762485    -1.586603    -2.484439
H      8.760015     6.365016    -4.270604
3
Frame 494, t=0.247 ps, E=0.032096 Ha, T=279861.9 K
O     -1.169363    -0.227675     0.426459
H      9.780928    -1.591454    -2.489405
H      8.779229     6.377123    -4.279358
3
Frame 495, t=0.248 ps, E=0.032078 Ha, T=279863.2 K
O     -1.171736    -0.228132     0.427323
H      9.799371    -1.596305    -2.494370
H      8.798443     6.389230    -4.288112
3
Frame 496, t=0.248 ps, E=0.032059 Ha, T=279864.5 K
O     -1.174108    -0.228590     0.428187
H      9.817814    -1.601157    -2.499336
H      8.817657     6.401337    -4.296865
3
Frame 497, t=0.249 ps, E=0.032041 Ha, T=279865.8 K
O     -1.176481    -0.229047     0.429052
H      9.836258    -1.606008    -2.504301
H      8.836872     6.413444    -4.305619
3
Frame 498, t=0.249 ps, E=0.032023 Ha, T=279867.1 K
O     -1.178853    -0.229504     0.429916
H      9.854701    -1.610859    -2.509267
H      8.856086     6.425550    -4.314373
3
Frame 499, t=0.250 ps, E=0.032005 Ha, T=279868.3 K
O     -1.181226    -0.229961     0.430781
H      9.873144    -1.615710    -2.514232
H      8.875300     6.437657    -4.323127
3
Frame 500, t=0.251 ps, E=0.031986 Ha, T=279869.6 K
O     -1.183598    -0.230418     0.431645
H      9.891588    -1.620561    -2.519198
H      8.894514     6.449764    -4.331881
3
Frame 501, t=0.251 ps, E=0.031968 Ha, T=279870.9 K
O     -1.185971    -0.230875     0.432509
H      9.910032    -1.625412    -2.524164
H      8.913729     6.461870    -4.340634
3
Frame 502, t=0.252 ps, E=0.031950 Ha, T=279872.1 K
O     -1.188344    -0.231332     0.433374
H      9.928475    -1.630262    -2.529129
H      8.932943     6.473977    -4.349388
3
Frame 503, t=0.252 ps, E=0.031933 Ha, T=279873.4 K
O     -1.190716    -0.231790     0.434238
H      9.946919    -1.635113    -2.534095
H      8.952158     6.486083    -4.358142
3
Frame 504, t=0.253 ps, E=0.031915 Ha, T=279874.6 K
O     -1.193089    -0.232247     0.435102
H      9.965363    -1.639964    -2.539061
H      8.971373     6.498190    -4.366896
3
Frame 505, t=0.253 ps, E=0.031897 Ha, T=279875.9 K
O     -1.195462    -0.232704     0.435967
H      9.983807    -1.644814    -2.544027
H      8.990587     6.510296    -4.375650
3
Frame 506, t=0.254 ps, E=0.031879 Ha, T=279877.1 K
O     -1.197834    -0.233161     0.436831
H     10.002251    -1.649665    -2.548993
H      9.009802     6.522402    -4.384404
3
Frame 507, t=0.254 ps, E=0.031862 Ha, T=279878.4 K
O     -1.200207    -0.233618     0.437696
H     10.020695    -1.654515    -2.553958
H      9.029017     6.534509    -4.393158
3
Frame 508, t=0.255 ps, E=0.031844 Ha, T=279879.6 K
O     -1.202580    -0.234075     0.438560
H     10.039139    -1.659365    -2.558924
H      9.048232     6.546615    -4.401912
3
Frame 509, t=0.255 ps, E=0.031827 Ha, T=279880.8 K
O     -1.204952    -0.234533     0.439424
H     10.057583    -1.664216    -2.563890
H      9.067447     6.558721    -4.410665
3
Frame 510, t=0.256 ps, E=0.031809 Ha, T=279882.0 K
O     -1.207325    -0.234990     0.440289
H     10.076028    -1.669066    -2.568857
H      9.086662     6.570827    -4.419419
3
Frame 511, t=0.256 ps, E=0.031792 Ha, T=279883.3 K
O     -1.209698    -0.235447     0.441153
H     10.094472    -1.673916    -2.573823
H      9.105877     6.582933    -4.428173
3
Frame 512, t=0.257 ps, E=0.031775 Ha, T=279884.5 K
O     -1.212070    -0.235904     0.442018
H     10.112917    -1.678766    -2.578789
H      9.125092     6.595040    -4.436927
3
Frame 513, t=0.257 ps, E=0.031757 Ha, T=279885.7 K
O     -1.214443    -0.236361     0.442882
H     10.131361    -1.683616    -2.583755
H      9.144307     6.607146    -4.445681
3
Frame 514, t=0.258 ps, E=0.031740 Ha, T=279886.9 K
O     -1.216816    -0.236818     0.443747
H     10.149806    -1.688466    -2.588721
H      9.163522     6.619252    -4.454435
3
Frame 515, t=0.258 ps, E=0.031723 Ha, T=279888.1 K
O     -1.219188    -0.237275     0.444611
H     10.168250    -1.693316    -2.593687
H      9.182738     6.631357    -4.463189
3
Frame 516, t=0.259 ps, E=0.031706 Ha, T=279889.3 K
O     -1.221561    -0.237733     0.445475
H     10.186695    -1.698165    -2.598654
H      9.201953     6.643463    -4.471943
3
Frame 517, t=0.259 ps, E=0.031689 Ha, T=279890.5 K
O     -1.223934    -0.238190     0.446340
H     10.205140    -1.703015    -2.603620
H      9.221168     6.655569    -4.480697
3
Frame 518, t=0.260 ps, E=0.031672 Ha, T=279891.7 K
O     -1.226307    -0.238647     0.447204
H     10.223585    -1.707865    -2.608586
H      9.240384     6.667675    -4.489451
3
Frame 519, t=0.260 ps, E=0.031655 Ha, T=279892.8 K
O     -1.228679    -0.239104     0.448069
H     10.242030    -1.712714    -2.613553
H      9.259599     6.679781    -4.498205
3
Frame 520, t=0.261 ps, E=0.031639 Ha, T=279894.0 K
O     -1.231052    -0.239561     0.448933
H     10.260475    -1.717564    -2.618519
H      9.278815     6.691886    -4.506959
3
Frame 521, t=0.261 ps, E=0.031622 Ha, T=279895.2 K
O     -1.233425    -0.240018     0.449798
H     10.278920    -1.722413    -2.623486
H      9.298031     6.703992    -4.515713
3
Frame 522, t=0.262 ps, E=0.031605 Ha, T=279896.4 K
O     -1.235798    -0.240476     0.450662
H     10.297365    -1.727263    -2.628452
H      9.317247     6.716098    -4.524467
3
Frame 523, t=0.262 ps, E=0.031589 Ha, T=279897.5 K
O     -1.238171    -0.240933     0.451527
H     10.315811    -1.732112    -2.633419
H      9.336462     6.728203    -4.533221
3
Frame 524, t=0.263 ps, E=0.031572 Ha, T=279898.7 K
O     -1.240543    -0.241390     0.452391
H     10.334256    -1.736961    -2.638386
H      9.355678     6.740309    -4.541975
3
Frame 525, t=0.263 ps, E=0.031556 Ha, T=279899.8 K
O     -1.242916    -0.241847     0.453255
H     10.352701    -1.741810    -2.643352
H      9.374894     6.752414    -4.550729
3
Frame 526, t=0.264 ps, E=0.031539 Ha, T=279901.0 K
O     -1.245289    -0.242304     0.454120
H     10.371147    -1.746659    -2.648319
H      9.394110     6.764520    -4.559483
3
Frame 527, t=0.264 ps, E=0.031523 Ha, T=279902.1 K
O     -1.247662    -0.242762     0.454984
H     10.389592    -1.751508    -2.653286
H      9.413326     6.776625    -4.568237
3
Frame 528, t=0.265 ps, E=0.031507 Ha, T=279903.3 K
O     -1.250035    -0.243219     0.455849
H     10.408038    -1.756357    -2.658252
H      9.432542     6.788730    -4.576991
3
Frame 529, t=0.265 ps, E=0.031490 Ha, T=279904.4 K
O     -1.252408    -0.243676     0.456713
H     10.426484    -1.761206    -2.663219
H      9.451759     6.800836    -4.585745
3
Frame 530, t=0.266 ps, E=0.031474 Ha, T=279905.5 K
O     -1.254780    -0.244133     0.457578
H     10.444930    -1.766055    -2.668186
H      9.470975     6.812941    -4.594499
3
Frame 531, t=0.266 ps, E=0.031458 Ha, T=279906.7 K
O     -1.257153    -0.244590     0.458442
H     10.463375    -1.770903    -2.673153
H      9.490191     6.825046    -4.603253
3
Frame 532, t=0.267 ps, E=0.031442 Ha, T=279907.8 K
O     -1.259526    -0.245047     0.459307
H     10.481821    -1.775752    -2.678120
H      9.509408     6.837151    -4.612007
3
Frame 533, t=0.267 ps, E=0.031426 Ha, T=279908.9 K
O     -1.261899    -0.245505     0.460171
H     10.500267    -1.780601    -2.683087
H      9.528624     6.849256    -4.620761
3
Frame 534, t=0.268 ps, E=0.031410 Ha, T=279910.0 K
O     -1.264272    -0.245962     0.461036
H     10.518713    -1.785449    -2.688054
H      9.547840     6.861362    -4.629515
3
Frame 535, t=0.268 ps, E=0.031394 Ha, T=279911.2 K
O     -1.266645    -0.246419     0.461900
H     10.537160    -1.790298    -2.693021
H      9.567057     6.873467    -4.638269
3
Frame 536, t=0.269 ps, E=0.031378 Ha, T=279912.3 K
O     -1.269018    -0.246876     0.462765
H     10.555606    -1.795146    -2.697988
H      9.586274     6.885572    -4.647023
3
Frame 537, t=0.269 ps, E=0.031363 Ha, T=279913.4 K
O     -1.271391    -0.247333     0.463629
H     10.574052    -1.799994    -2.702955
H      9.605490     6.897677    -4.655778
3
Frame 538, t=0.270 ps, E=0.031347 Ha, T=279914.5 K
O     -1.273764    -0.247791     0.464494
H     10.592498    -1.804843    -2.707922
H      9.624707     6.909781    -4.664532
3
Frame 539, t=0.270 ps, E=0.031331 Ha, T=279915.6 K
O     -1.276136    -0.248248     0.465358
H     10.610945    -1.809691    -2.712889
H      9.643924     6.921886    -4.673286
3
Frame 540, t=0.271 ps, E=0.031316 Ha, T=279916.7 K
O     -1.278509    -0.248705     0.466223
H     10.629391    -1.814539    -2.717857
H      9.663141     6.933991    -4.682040
3
Frame 541, t=0.271 ps, E=0.031300 Ha, T=279917.8 K
O     -1.280882    -0.249162     0.467087
H     10.647838    -1.819387    -2.722824
H      9.682357     6.946096    -4.690794
3
Frame 542, t=0.272 ps, E=0.031285 Ha, T=279918.9 K
O     -1.283255    -0.249619     0.467952
H     10.666285    -1.824235    -2.727791
H      9.701574     6.958201    -4.699548
3
Frame 543, t=0.272 ps, E=0.031269 Ha, T=279919.9 K
O     -1.285628    -0.250077     0.468816
H     10.684731    -1.829083    -2.732759
H      9.720791     6.970305    -4.708302
3
Frame 544, t=0.273 ps, E=0.031254 Ha, T=279921.0 K
O     -1.288001    -0.250534     0.469681
H     10.703178    -1.833931    -2.737726
H      9.740008     6.982410    -4.717056
3
Frame 545, t=0.273 ps, E=0.031238 Ha, T=279922.1 K
O     -1.290374    -0.250991     0.470545
H     10.721625    -1.838779    -2.742693
H      9.759226     6.994515    -4.725810
3
Frame 546, t=0.274 ps, E=0.031223 Ha, T=279923.2 K
O     -1.292747    -0.251448     0.471410
H     10.740072    -1.843627    -2.747661
H      9.778443     7.006619    -4.734565
3
Frame 547, t=0.274 ps, E=0.031208 Ha, T=279924.2 K
O     -1.295120    -0.251905     0.472274
H     10.758519    -1.848474    -2.752628
H      9.797660     7.018724    -4.743319
3
Frame 548, t=0.275 ps, E=0.031193 Ha, T=279925.3 K
O     -1.297493    -0.252363     0.473139
H     10.776966    -1.853322    -2.757596
H      9.816877     7.030828    -4.752073
3
Frame 549, t=0.275 ps, E=0.031178 Ha, T=279926.4 K
O     -1.299866    -0.252820     0.474003
H     10.795413    -1.858170    -2.762563
H      9.836094     7.042933    -4.760827
3
Frame 550, t=0.276 ps, E=0.031163 Ha, T=279927.4 K
O     -1.302239    -0.253277     0.474868
H     10.813860    -1.863017    -2.767531
H      9.855312     7.055037    -4.769581
3
Frame 551, t=0.276 ps, E=0.031148 Ha, T=279928.5 K
O     -1.304612    -0.253734     0.475732
H     10.832307    -1.867865    -2.772499
H      9.874529     7.067142    -4.778335
3
Frame 552, t=0.277 ps, E=0.031133 Ha, T=279929.5 K
O     -1.306985    -0.254192     0.476597
H     10.850754    -1.872712    -2.777466
H      9.893747     7.079246    -4.787090
3
Frame 553, t=0.277 ps, E=0.031118 Ha, T=279930.6 K
O     -1.309358    -0.254649     0.477461
H     10.869202    -1.877559    -2.782434
H      9.912964     7.091350    -4.795844
3
Frame 554, t=0.278 ps, E=0.031103 Ha, T=279931.6 K
O     -1.311731    -0.255106     0.478326
H     10.887649    -1.882407    -2.787402
H      9.932182     7.103455    -4.804598
3
Frame 555, t=0.278 ps, E=0.031088 Ha, T=279932.6 K
O     -1.314104    -0.255563     0.479190
H     10.906097    -1.887254    -2.792370
H      9.951400     7.115559    -4.813352
3
Frame 556, t=0.279 ps, E=0.031073 Ha, T=279933.7 K
O     -1.316477    -0.256020     0.480055
H     10.924544    -1.892101    -2.797337
H      9.970617     7.127663    -4.822106
3
Frame 557, t=0.279 ps, E=0.031059 Ha, T=279934.7 K
O     -1.318851    -0.256478     0.480920
H     10.942992    -1.896948    -2.802305
H      9.989835     7.139767    -4.830861
3
Frame 558, t=0.280 ps, E=0.031044 Ha, T=279935.7 K
O     -1.321224    -0.256935     0.481784
H     10.961440    -1.901795    -2.807273
H     10.009053     7.151871    -4.839615
3
Frame 559, t=0.280 ps, E=0.031029 Ha, T=279936.8 K
O     -1.323597    -0.257392     0.482649
H     10.979887    -1.906642    -2.812241
H     10.028271     7.163975    -4.848369
3
Frame 560, t=0.281 ps, E=0.031015 Ha, T=279937.8 K
O     -1.325970    -0.257849     0.483513
H     10.998335    -1.911489    -2.817209
H     10.047489     7.176079    -4.857123
3
Frame 561, t=0.281 ps, E=0.031000 Ha, T=279938.8 K
O     -1.328343    -0.258307     0.484378
H     11.016783    -1.916336    -2.822177
H     10.066707     7.188183    -4.865878
3
Frame 562, t=0.281 ps, E=0.030986 Ha, T=279939.8 K
O     -1.330716    -0.258764     0.485242
H     11.035231    -1.921183    -2.827145
H     10.085925     7.200287    -4.874632
3
Frame 563, t=0.282 ps, E=0.030972 Ha, T=279940.8 K
O     -1.333089    -0.259221     0.486107
H     11.053679    -1.926029    -2.832113
H     10.105143     7.212391    -4.883386
3
Frame 564, t=0.282 ps, E=0.030957 Ha, T=279941.8 K
O     -1.335462    -0.259678     0.486971
H     11.072127    -1.930876    -2.837081
H     10.124361     7.224495    -4.892140
3
Frame 565, t=0.283 ps, E=0.030943 Ha, T=279942.8 K
O     -1.337835    -0.260135     0.487836
H     11.090575    -1.935723    -2.842049
H     10.143579     7.236599    -4.900895
3
Frame 566, t=0.283 ps, E=0.030929 Ha, T=279943.8 K
O     -1.340208    -0.260593     0.488701
H     11.109023    -1.940569    -2.847017
H     10.162797     7.248703    -4.909649
3
Frame 567, t=0.284 ps, E=0.030915 Ha, T=279944.8 K
O     -1.342582    -0.261050     0.489565
H     11.127472    -1.945416    -2.851986
H     10.182016     7.260806    -4.918403
3
Frame 568, t=0.284 ps, E=0.030900 Ha, T=279945.8 K
O     -1.344955    -0.261507     0.490430
H     11.145920    -1.950262    -2.856954
H     10.201234     7.272910    -4.927157
3
Frame 569, t=0.285 ps, E=0.030886 Ha, T=279946.8 K
O     -1.347328    -0.261964     0.491294
H     11.164368    -1.955109    -2.861922
H     10.220452     7.285014    -4.935912
3
Frame 570, t=0.285 ps, E=0.030872 Ha, T=279947.8 K
O     -1.349701    -0.262422     0.492159
H     11.182817    -1.959955    -2.866890
H     10.239671     7.297117    -4.944666
3
Frame 571, t=0.286 ps, E=0.030858 Ha, T=279948.8 K
O     -1.352074    -0.262879     0.493023
H     11.201265    -1.964801    -2.871859
H     10.258889     7.309221    -4.953420
3
Frame 572, t=0.286 ps, E=0.030844 Ha, T=279949.7 K
O     -1.354447    -0.263336     0.493888
H     11.219714    -1.969648    -2.876827
H     10.278108     7.321325    -4.962175
3
Frame 573, t=0.287 ps, E=0.030830 Ha, T=279950.7 K
O     -1.356821    -0.263793     0.494753
H     11.238163    -1.974494    -2.881795
H     10.297326     7.333428    -4.970929
3
Frame 574, t=0.287 ps, E=0.030817 Ha, T=279951.7 K
O     -1.359194    -0.264251     0.495617
H     11.256611    -1.979340    -2.886764
H     10.316545     7.345532    -4.979683
3
Frame 575, t=0.288 ps, E=0.030803 Ha, T=279952.7 K
O     -1.361567    -0.264708     0.496482
H     11.275060    -1.984186    -2.891732
H     10.335764     7.357635    -4.988437
3
Frame 576, t=0.288 ps, E=0.030789 Ha, T=279953.6 K
O     -1.363940    -0.265165     0.497346
H     11.293509    -1.989032    -2.896701
H     10.354982     7.369738    -4.997192
3
Frame 577, t=0.289 ps, E=0.030775 Ha, T=279954.6 K
O     -1.366313    -0.265622     0.498211
H     11.311958    -1.993878    -2.901669
H     10.374201     7.381842    -5.005946
3
Frame 578, t=0.289 ps, E=0.030762 Ha, T=279955.5 K
O     -1.368687    -0.266080     0.499076
H     11.330407    -1.998724    -2.906638
H     10.393420     7.393945    -5.014700
3
Frame 579, t=0.290 ps, E=0.030748 Ha, T=279956.5 K
O     -1.371060    -0.266537     0.499940
H     11.348856    -2.003570    -2.911606
H     10.412639     7.406048    -5.023455
3
Frame 580, t=0.290 ps, E=0.030734 Ha, T=279957.5 K
O     -1.373433    -0.266994     0.500805
H     11.367305    -2.008415    -2.916575
H     10.431858     7.418152    -5.032209
3
Frame 581, t=0.291 ps, E=0.030721 Ha, T=279958.4 K
O     -1.375806    -0.267451     0.501669
H     11.385754    -2.013261    -2.921544
H     10.451077     7.430255    -5.040964
3
Frame 582, t=0.291 ps, E=0.030707 Ha, T=279959.4 K
O     -1.378180    -0.267909     0.502534
H     11.404203    -2.018107    -2.926512
H     10.470296     7.442358    -5.049718
3
Frame 583, t=0.292 ps, E=0.030694 Ha, T=279960.3 K
O     -1.380553    -0.268366     0.503399
H     11.422652    -2.022952    -2.931481
H     10.489515     7.454461    -5.058472
3
Frame 584, t=0.292 ps, E=0.030680 Ha, T=279961.2 K
O     -1.382926    -0.268823     0.504263
H     11.441102    -2.027798    -2.936450
H     10.508734     7.466564    -5.067227
3
Frame 585, t=0.293 ps, E=0.030667 Ha, T=279962.2 K
O     -1.385299    -0.269280     0.505128
H     11.459551    -2.032643    -2.941419
H     10.527953     7.478668    -5.075981
3
Frame 586, t=0.293 ps, E=0.030654 Ha, T=279963.1 K
O     -1.387673    -0.269738     0.505992
H     11.478000    -2.037489    -2.946387
H     10.547172     7.490771    -5.084735
3
Frame 587, t=0.294 ps, E=0.030641 Ha, T=279964.0 K
O     -1.390046    -0.270195     0.506857
H     11.496450    -2.042334    -2.951356
H     10.566392     7.502874    -5.093490
3
Frame 588, t=0.294 ps, E=0.030627 Ha, T=279965.0 K
O     -1.392419    -0.270652     0.507722
H     11.514899    -2.047180    -2.956325
H     10.585611     7.514977    -5.102244
3
Frame 589, t=0.295 ps, E=0.030614 Ha, T=279965.9 K
O     -1.394792    -0.271109     0.508586
H     11.533349    -2.052025    -2.961294
H     10.604830     7.527080    -5.110998
3
Frame 590, t=0.295 ps, E=0.030601 Ha, T=279966.8 K
O     -1.397166    -0.271567     0.509451
H     11.551799    -2.056870    -2.966263
H     10.624050     7.539182    -5.119753
3
Frame 591, t=0.296 ps, E=0.030588 Ha, T=279967.7 K
O     -1.399539    -0.272024     0.510315
H     11.570248    -2.061715    -2.971232
H     10.643269     7.551285    -5.128507
3
Frame 592, t=0.296 ps, E=0.030575 Ha, T=279968.7 K
O     -1.401912    -0.272481     0.511180
H     11.588698    -2.066561    -2.976201
H     10.662489     7.563388    -5.137262
3
Frame 593, t=0.297 ps, E=0.030562 Ha, T=279969.6 K
O     -1.404286    -0.272938     0.512045
H     11.607148    -2.071406    -2.981170
H     10.681708     7.575491    -5.146016
3
Frame 594, t=0.297 ps, E=0.030549 Ha, T=279970.5 K
O     -1.406659    -0.273396     0.512909
H     11.625598    -2.076251    -2.986139
H     10.700928     7.587594    -5.154771
3
Frame 595, t=0.298 ps, E=0.030536 Ha, T=279971.4 K
O     -1.409032    -0.273853     0.513774
H     11.644048    -2.081096    -2.991108
H     10.720147     7.599697    -5.163525
3
Frame 596, t=0.298 ps, E=0.030523 Ha, T=279972.3 K
O     -1.411406    -0.274310     0.514639
H     11.662498    -2.085941    -2.996077
H     10.739367     7.611799    -5.172279
3
Frame 597, t=0.299 ps, E=0.030510 Ha, T=279973.2 K
O     -1.413779    -0.274768     0.515503
H     11.680948    -2.090785    -3.001046
H     10.758587     7.623902    -5.181034
3
Frame 598, t=0.299 ps, E=0.030497 Ha, T=279974.1 K
O     -1.416152    -0.275225     0.516368
H     11.699398    -2.095630    -3.006015
H     10.777807     7.636005    -5.189788
3
Frame 599, t=0.300 ps, E=0.030485 Ha, T=279975.0 K
O     -1.418526    -0.275682     0.517233
H     11.717848    -2.100475    -3.010985
H     10.797026     7.648107    -5.198543
3
Frame 600, t=0.300 ps, E=0.030472 Ha, T=279975.9 K
O     -1.420899    -0.276139     0.518097
H     11.736299    -2.105320    -3.015954
H     10.816246     7.660210    -5.207297
3
Frame 601, t=0.301 ps, E=0.030459 Ha, T=279976.8 K
O     -1.423272    -0.276597     0.518962
H     11.754749    -2.110164    -3.020923
H     10.835466     7.672312    -5.216052
3
Frame 602, t=0.301 ps, E=0.030447 Ha, T=279977.7 K
O     -1.425646    -0.277054     0.519826
H     11.773199    -2.115009    -3.025892
H     10.854686     7.684415    -5.224806
3
Frame 603, t=0.302 ps, E=0.030434 Ha, T=279978.5 K
O     -1.428019    -0.277511     0.520691
H     11.791650    -2.119854    -3.030862
H     10.873906     7.696517    -5.233561
3
Frame 604, t=0.302 ps, E=0.030421 Ha, T=279979.4 K
O     -1.430393    -0.277968     0.521556
H     11.810100    -2.124698    -3.035831
H     10.893126     7.708620    -5.242315
3
Frame 605, t=0.303 ps, E=0.030409 Ha, T=279980.3 K
O     -1.432766    -0.278426     0.522420
H     11.828551    -2.129543    -3.040801
H     10.912346     7.720722    -5.251069
3
Frame 606, t=0.303 ps, E=0.030396 Ha, T=279981.2 K
O     -1.435139    -0.278883     0.523285
H     11.847001    -2.134387    -3.045770
H     10.931566     7.732824    -5.259824
3
Frame 607, t=0.304 ps, E=0.030384 Ha, T=279982.0 K
O     -1.437513    -0.279340     0.524150
H     11.865452    -2.139231    -3.050739
H     10.950786     7.744927    -5.268578
3
Frame 608, t=0.304 ps, E=0.030372 Ha, T=279982.9 K
O     -1.439886    -0.279798     0.525014
H     11.883903    -2.144076    -3.055709
H     10.970007     7.757029    -5.277333
3
Frame 609, t=0.305 ps, E=0.030359 Ha, T=279983.8 K
O     -1.442260    -0.280255     0.525879
H     11.902353    -2.148920    -3.060678
H     10.989227     7.769131    -5.286087
3
Frame 610, t=0.305 ps, E=0.030347 Ha, T=279984.6 K
O     -1.444633    -0.280712     0.526744
H     11.920804    -2.153764    -3.065648
H     11.008447     7.781234    -5.294842
3
Frame 611, t=0.306 ps, E=0.030335 Ha, T=279985.5 K
O     -1.447007    -0.281169     0.527608
H     11.939255    -2.158609    -3.070618
H     11.027668     7.793336    -5.303596
3
Frame 612, t=0.306 ps, E=0.030322 Ha, T=279986.4 K
O     -1.449380    -0.281627     0.528473
H     11.957706    -2.163453    -3.075587
H     11.046888     7.805438    -5.312351
3
Frame 613, t=0.307 ps, E=0.030310 Ha, T=279987.2 K
O     -1.451753    -0.282084     0.529338
H     11.976157    -2.168297    -3.080557
H     11.066108     7.817540    -5.321105
3
Frame 614, t=0.307 ps, E=0.030298 Ha, T=279988.1 K
O     -1.454127    -0.282541     0.530202
H     11.994608    -2.173141    -3.085526
H     11.085329     7.829642    -5.329860
3
Frame 615, t=0.308 ps, E=0.030286 Ha, T=279988.9 K
O     -1.456500    -0.282999     0.531067
H     12.013059    -2.177985    -3.090496
H     11.104549     7.841744    -5.338615
3
Frame 616, t=0.308 ps, E=0.030274 Ha, T=279989.8 K
O     -1.458874    -0.283456     0.531932
H     12.031510    -2.182829    -3.095466
H     11.123770     7.853846    -5.347369
3
Frame 617, t=0.309 ps, E=0.030262 Ha, T=279990.6 K
O     -1.461247    -0.283913     0.532797
H     12.049961    -2.187673    -3.100436
H     11.142991     7.865948    -5.356124
3
Frame 618, t=0.309 ps, E=0.030250 Ha, T=279991.5 K
O     -1.463621    -0.284370     0.533661
H     12.068413    -2.192516    -3.105405
H     11.162211     7.878050    -5.364878
3
Frame 619, t=0.310 ps, E=0.030238 Ha, T=279992.3 K
O     -1.465994    -0.284828     0.534526
H     12.086864    -2.197360    -3.110375
H     11.181432     7.890152    -5.373633
3
Frame 620, t=0.310 ps, E=0.030226 Ha, T=279993.1 K
O     -1.468368    -0.285285     0.535391
H     12.105315    -2.202204    -3.115345
H     11.200653     7.902254    -5.382387
3
Frame 621, t=0.311 ps, E=0.030214 Ha, T=279994.0 K
O     -1.470741    -0.285742     0.536255
H     12.123767    -2.207048    -3.120315
H     11.219873     7.914356    -5.391142
3
Frame 622, t=0.311 ps, E=0.030202 Ha, T=279994.8 K
O     -1.473115    -0.286200     0.537120
H     12.142218    -2.211891    -3.125285
H     11.239094     7.926458    -5.399896
3
Frame 623, t=0.312 ps, E=0.030190 Ha, T=279995.6 K
O     -1.475488    -0.286657     0.537985
H     12.160670    -2.216735    -3.130255
H     11.258315     7.938560    -5.408651
3
Frame 624, t=0.312 ps, E=0.030179 Ha, T=279996.5 K
O     -1.477862    -0.287114     0.538849
H     12.179121    -2.221578    -3.135225
H     11.277536     7.950661    -5.417405
3
Frame 625, t=0.313 ps, E=0.030167 Ha, T=279997.3 K
O     -1.480235    -0.287571     0.539714
H     12.197573    -2.226422    -3.140194
H     11.296757     7.962763    -5.426160
3
Frame 626, t=0.314 ps, E=0.030155 Ha, T=279998.1 K
O     -1.482609    -0.288029     0.540579
H     12.216024    -2.231265    -3.145164
H     11.315978     7.974865    -5.434915
3
Frame 627, t=0.314 ps, E=0.030143 Ha, T=279998.9 K
O     -1.484982    -0.288486     0.541443
H     12.234476    -2.236109    -3.150135
H     11.335199     7.986967    -5.443669
3
Frame 628, t=0.315 ps, E=0.030132 Ha, T=279999.7 K
O     -1.487356    -0.288943     0.542308
H     12.252928    -2.240952    -3.155105
H     11.354420     7.999068    -5.452424
3
Frame 629, t=0.315 ps, E=0.030120 Ha, T=280000.6 K
O     -1.489729    -0.289401     0.543173
H     12.271380    -2.245796    -3.160075
H     11.373641     8.011170    -5.461178
3
Frame 630, t=0.316 ps, E=0.030109 Ha, T=280001.4 K
O     -1.492103    -0.289858     0.544038
H     12.289832    -2.250639    -3.165045
H     11.392862     8.023271    -5.469933
3
Frame 631, t=0.316 ps, E=0.030097 Ha, T=280002.2 K
O     -1.494477    -0.290315     0.544902
H     12.308284    -2.255482    -3.170015
H     11.412083     8.035373    -5.478688
3
Frame 632, t=0.317 ps, E=0.030086 Ha, T=280003.0 K
O     -1.496850    -0.290773     0.545767
H     12.326736    -2.260325    -3.174985
H     11.431305     8.047475    -5.487442
3
Frame 633, t=0.317 ps, E=0.030074 Ha, T=280003.8 K
O     -1.499224    -0.291230     0.546632
H     12.345188    -2.265168    -3.179955
H     11.450526     8.059576    -5.496197
3
Frame 634, t=0.318 ps, E=0.030063 Ha, T=280004.6 K
O     -1.501597    -0.291687     0.547496
H     12.363640    -2.270012    -3.184925
H     11.469747     8.071677    -5.504951
3
Frame 635, t=0.318 ps, E=0.030051 Ha, T=280005.4 K
O     -1.503971    -0.292144     0.548361
H     12.382092    -2.274855    -3.189896
H     11.488969     8.083779    -5.513706
3
Frame 636, t=0.319 ps, E=0.030040 Ha, T=280006.2 K
O     -1.506344    -0.292602     0.549226
H     12.400544    -2.279698    -3.194866
H     11.508190     8.095880    -5.522461
3
Frame 637, t=0.319 ps, E=0.030029 Ha, T=280007.0 K
O     -1.508718    -0.293059     0.550091
H     12.418996    -2.284541    -3.199836
H     11.527411     8.107982    -5.531215
3
Frame 638, t=0.320 ps, E=0.030017 Ha, T=280007.8 K
O     -1.511092    -0.293516     0.550955
H     12.437449    -2.289383    -3.204807
H     11.546633     8.120083    -5.539970
3
Frame 639, t=0.320 ps, E=0.030006 Ha, T=280008.6 K
O     -1.513465    -0.293974     0.551820
H     12.455901    -2.294226    -3.209777
H     11.565854     8.132184    -5.548724
3
Frame 640, t=0.321 ps, E=0.029995 Ha, T=280009.4 K
O     -1.515839    -0.294431     0.552685
H     12.474353    -2.299069    -3.214747
H     11.585076     8.144286    -5.557479
3
Frame 641, t=0.321 ps, E=0.029984 Ha, T=280010.1 K
O     -1.518212    -0.294888     0.553550
H     12.492806    -2.303912    -3.219718
H     11.604297     8.156387    -5.566234
3
Frame 642, t=0.322 ps, E=0.029972 Ha, T=280010.9 K
O     -1.520586    -0.295346     0.554414
H     12.511258    -2.308755    -3.224688
H     11.623519     8.168488    -5.574988
3
Frame 643, t=0.322 ps, E=0.029961 Ha, T=280011.7 K
O     -1.522960    -0.295803     0.555279
H     12.529711    -2.313597    -3.229659
H     11.642741     8.180589    -5.583743
3
Frame 644, t=0.323 ps, E=0.029950 Ha, T=280012.5 K
O     -1.525333    -0.296260     0.556144
H     12.548163    -2.318440    -3.234629
H     11.661962     8.192691    -5.592498
3
Frame 645, t=0.323 ps, E=0.029939 Ha, T=280013.3 K
O     -1.527707    -0.296718     0.557008
H     12.566616    -2.323283    -3.239600
H     11.681184     8.204792    -5.601252
3
Frame 646, t=0.324 ps, E=0.029928 Ha, T=280014.0 K
O     -1.530081    -0.297175     0.557873
H     12.585069    -2.328125    -3.244570
H     11.700406     8.216893    -5.610007
3
Frame 647, t=0.324 ps, E=0.029917 Ha, T=280014.8 K
O     -1.532454    -0.297632     0.558738
H     12.603522    -2.332968    -3.249541
H     11.719628     8.228994    -5.618762
3
Frame 648, t=0.325 ps, E=0.029906 Ha, T=280015.6 K
O     -1.534828    -0.298090     0.559603
H     12.621974    -2.337810    -3.254511
H     11.738850     8.241095    -5.627516
3
Frame 649, t=0.325 ps, E=0.029895 Ha, T=280016.3 K
O     -1.537201    -0.298547     0.560467
H     12.640427    -2.342653    -3.259482
H     11.758071     8.253196    -5.636271
3
Frame 650, t=0.326 ps, E=0.029884 Ha, T=280017.1 K
O     -1.539575    -0.299004     0.561332
H     12.658880    -2.347495    -3.264452
H     11.777293     8.265297    -5.645026
3
Frame 651, t=0.326 ps, E=0.029874 Ha, T=280017.9 K
O     -1.541949    -0.299462     0.562197
H     12.677333    -2.352337    -3.269423
H     11.796515     8.277398    -5.653780
3
Frame 652, t=0.327 ps, E=0.029863 Ha, T=280018.6 K
O     -1.544322    -0.299919     0.563062
H     12.695786    -2.357180    -3.274394
H     11.815737     8.289499    -5.662535
3
Frame 653, t=0.327 ps, E=0.029852 Ha, T=280019.4 K
O     -1.546696    -0.300376     0.563926
H     12.714239    -2.362022    -3.279365
H     11.834959     8.301600    -5.671290
3
Frame 654, t=0.328 ps, E=0.029841 Ha, T=280020.1 K
O     -1.549070    -0.300833     0.564791
H     12.732692    -2.366864    -3.284335
H     11.854181     8.313701    -5.680045
3
Frame 655, t=0.328 ps, E=0.029831 Ha, T=280020.9 K
O     -1.551444    -0.301291     0.565656
H     12.751145    -2.371706    -3.289306
H     11.873404     8.325802    -5.688799
3
Frame 656, t=0.329 ps, E=0.029820 Ha, T=280021.6 K
O     -1.553817    -0.301748     0.566521
H     12.769599    -2.376549    -3.294277
H     11.892626     8.337902    -5.697554
3
Frame 657, t=0.329 ps, E=0.029809 Ha, T=280022.4 K
O     -1.556191    -0.302205     0.567386
H     12.788052    -2.381391    -3.299248
H     11.911848     8.350003    -5.706309
3
Frame 658, t=0.330 ps, E=0.029799 Ha, T=280023.1 K
O     -1.558565    -0.302663     0.568250
H     12.806505    -2.386233    -3.304219
H     11.931070     8.362104    -5.715063
3
Frame 659, t=0.330 ps, E=0.029788 Ha, T=280023.9 K
O     -1.560938    -0.303120     0.569115
H     12.824958    -2.391075    -3.309189
H     11.950292     8.374205    -5.723818
3
Frame 660, t=0.331 ps, E=0.029777 Ha, T=280024.6 K
O     -1.563312    -0.303577     0.569980
H     12.843412    -2.395917    -3.314160
H     11.969515     8.386305    -5.732573
3
Frame 661, t=0.331 ps, E=0.029767 Ha, T=280025.4 K
O     -1.565686    -0.304035     0.570845
H     12.861865    -2.400759    -3.319131
H     11.988737     8.398406    -5.741328
3
Frame 662, t=0.332 ps, E=0.029756 Ha, T=280026.1 K
O     -1.568060    -0.304492     0.571709
H     12.880319    -2.405601    -3.324102
H     12.007959     8.410507    -5.750082
3
Frame 663, t=0.332 ps, E=0.029746 Ha, T=280026.8 K
O     -1.570433    -0.304949     0.572574
H     12.898772    -2.410442    -3.329073
H     12.027182     8.422607    -5.758837
3
Frame 664, t=0.333 ps, E=0.029735 Ha, T=280027.6 K
O     -1.572807    -0.305407     0.573439
H     12.917226    -2.415284    -3.334044
H     12.046404     8.434708    -5.767592
3
Frame 665, t=0.333 ps, E=0.029725 Ha, T=280028.3 K
O     -1.575181    -0.305864     0.574304
H     12.935679    -2.420126    -3.339015
H     12.065627     8.446809    -5.776347
3
Frame 666, t=0.334 ps, E=0.029715 Ha, T=280029.0 K
O     -1.577554    -0.306321     0.575168
H     12.954133    -2.424968    -3.343986
H     12.084849     8.458909    -5.785101
3
Frame 667, t=0.334 ps, E=0.029704 Ha, T=280029.7 K
O     -1.579928    -0.306779     0.576033
H     12.972587    -2.429809    -3.348957
H     12.104072     8.471010    -5.793856
3
Frame 668, t=0.335 ps, E=0.029694 Ha, T=280030.5 K
O     -1.582302    -0.307236     0.576898
H     12.991041    -2.434651    -3.353928
H     12.123294     8.483110    -5.802611
3
Frame 669, t=0.335 ps, E=0.029684 Ha, T=280031.2 K
O     -1.584676    -0.307693     0.577763
H     13.009494    -2.439493    -3.358899
H     12.142517     8.495211    -5.811366
3
Frame 670, t=0.336 ps, E=0.029673 Ha, T=280031.9 K
O     -1.587050    -0.308151     0.578628
H     13.027948    -2.444334    -3.363871
H     12.161740     8.507311    -5.820120
3
Frame 671, t=0.336 ps, E=0.029663 Ha, T=280032.6 K
O     -1.589423    -0.308608     0.579492
H     13.046402    -2.449176    -3.368842
H     12.180962     8.519411    -5.828875
3
Frame 672, t=0.337 ps, E=0.029653 Ha, T=280033.3 K
O     -1.591797    -0.309065     0.580357
H     13.064856    -2.454017    -3.373813
H     12.200185     8.531512    -5.837630
3
Frame 673, t=0.337 ps, E=0.029643 Ha, T=280034.1 K
O     -1.594171    -0.309523     0.581222
H     13.083310    -2.458859    -3.378784
H     12.219408     8.543612    -5.846385
3
Frame 674, t=0.338 ps, E=0.029633 Ha, T=280034.8 K
O     -1.596545    -0.309980     0.582087
H     13.101764    -2.463700    -3.383755
H     12.238631     8.555712    -5.855139
3
Frame 675, t=0.338 ps, E=0.029622 Ha, T=280035.5 K
O     -1.598918    -0.310437     0.582952
H     13.120218    -2.468541    -3.388727
H     12.257853     8.567813    -5.863894
3
Frame 676, t=0.339 ps, E=0.029612 Ha, T=280036.2 K
O     -1.601292    -0.310895     0.583816
H     13.138673    -2.473383    -3.393698
H     12.277076     8.579913    -5.872649
3
Frame 677, t=0.339 ps, E=0.029602 Ha, T=280036.9 K
O     -1.603666    -0.311352     0.584681
H     13.157127    -2.478224    -3.398669
H     12.296299     8.592013    -5.881404
3
Frame 678, t=0.340 ps, E=0.029592 Ha, T=280037.6 K
O     -1.606040    -0.311810     0.585546
H     13.175581    -2.483065    -3.403641
H     12.315522     8.604113    -5.890159
3
Frame 679, t=0.340 ps, E=0.029582 Ha, T=280038.3 K
O     -1.608414    -0.312267     0.586411
H     13.194035    -2.487907    -3.408612
H     12.334745     8.616214    -5.898913
3
Frame 680, t=0.341 ps, E=0.029572 Ha, T=280039.0 K
O     -1.610788    -0.312724     0.587276
H     13.212490    -2.492748    -3.413583
H     12.353968     8.628314    -5.907668
3
Frame 681, t=0.341 ps, E=0.029562 Ha, T=280039.7 K
O     -1.613161    -0.313182     0.588140
H     13.230944    -2.497589    -3.418555
H     12.373191     8.640414    -5.916423
3
Frame 682, t=0.342 ps, E=0.029552 Ha, T=280040.4 K
O     -1.615535    -0.313639     0.589005
H     13.249398    -2.502430    -3.423526
H     12.392414     8.652514    -5.925178
3
Frame 683, t=0.342 ps, E=0.029543 Ha, T=280041.1 K
O     -1.617909    -0.314096     0.589870
H     13.267853    -2.507271    -3.428498
H     12.411637     8.664614    -5.933933
3
Frame 684, t=0.343 ps, E=0.029533 Ha, T=280041.8 K
O     -1.620283    -0.314554     0.590735
H     13.286307    -2.512112    -3.433469
H     12.430860     8.676714    -5.942687
3
Frame 685, t=0.343 ps, E=0.029523 Ha, T=280042.5 K
O     -1.622657    -0.315011     0.591600
H     13.304762    -2.516953    -3.438441
H     12.450083     8.688814    -5.951442
3
Frame 686, t=0.344 ps, E=0.029513 Ha, T=280043.2 K
O     -1.625031    -0.315468     0.592464
H     13.323216    -2.521794    -3.443412
H     12.469307     8.700914    -5.960197
3
Frame 687, t=0.344 ps, E=0.029503 Ha, T=280043.8 K
O     -1.627404    -0.315926     0.593329
H     13.341671    -2.526635    -3.448384
H     12.488530     8.713014    -5.968952
3
Frame 688, t=0.344 ps, E=0.029494 Ha, T=280044.5 K
O     -1.629778    -0.316383     0.594194
H     13.360126    -2.531476    -3.453355
H     12.507753     8.725114    -5.977707
3
Frame 689, t=0.345 ps, E=0.029484 Ha, T=280045.2 K
O     -1.632152    -0.316840     0.595059
H     13.378581    -2.536317    -3.458327
H     12.526977     8.737214    -5.986462
3
Frame 690, t=0.345 ps, E=0.029474 Ha, T=280045.9 K
O     -1.634526    -0.317298     0.595924
H     13.397035    -2.541157    -3.463298
H     12.546200     8.749314    -5.995216
3
Frame 691, t=0.346 ps, E=0.029464 Ha, T=280046.6 K
O     -1.636900    -0.317755     0.596788
H     13.415490    -2.545998    -3.468270
H     12.565423     8.761414    -6.003971
3
Frame 692, t=0.346 ps, E=0.029455 Ha, T=280047.3 K
O     -1.639274    -0.318212     0.597653
H     13.433945    -2.550839    -3.473242
H     12.584647     8.773514    -6.012726
3
Frame 693, t=0.347 ps, E=0.029445 Ha, T=280047.9 K
O     -1.641648    -0.318670     0.598518
H     13.452400    -2.555679    -3.478213
H     12.603870     8.785614    -6.021481
3
Frame 694, t=0.347 ps, E=0.029436 Ha, T=280048.6 K
O     -1.644022    -0.319127     0.599383
H     13.470855    -2.560520    -3.483185
H     12.623094     8.797713    -6.030236
3
Frame 695, t=0.348 ps, E=0.029426 Ha, T=280049.3 K
O     -1.646395    -0.319584     0.600248
H     13.489310    -2.565361    -3.488157
H     12.642317     8.809813    -6.038991
3
Frame 696, t=0.348 ps, E=0.029416 Ha, T=280049.9 K
O     -1.648769    -0.320042     0.601113
H     13.507765    -2.570201    -3.493128
H     12.661541     8.821913    -6.047746
3
Frame 697, t=0.349 ps, E=0.029407 Ha, T=280050.6 K
O     -1.651143    -0.320499     0.601977
H     13.526220    -2.575042    -3.498100
H     12.680764     8.834013    -6.056500
3
Frame 698, t=0.349 ps, E=0.029398 Ha, T=280051.3 K
O     -1.653517    -0.320957     0.602842
H     13.544675    -2.579882    -3.503072
H     12.699988     8.846112    -6.065255
3
Frame 699, t=0.350 ps, E=0.029388 Ha, T=280051.9 K
O     -1.655891    -0.321414     0.603707
H     13.563130    -2.584723    -3.508044
H     12.719211     8.858212    -6.074010
3
Frame 700, t=0.350 ps, E=0.029379 Ha, T=280052.6 K
O     -1.658265    -0.321871     0.604572
H     13.581586    -2.589563    -3.513016
H     12.738435     8.870312    -6.082765
3
Frame 701, t=0.351 ps, E=0.029369 Ha, T=280053.3 K
O     -1.660639    -0.322329     0.605437
H     13.600041    -2.594404    -3.517988
H     12.757659     8.882411    -6.091520
3
Frame 702, t=0.351 ps, E=0.029360 Ha, T=280053.9 K
O     -1.663013    -0.322786     0.606302
H     13.618496    -2.599244    -3.522959
H     12.776882     8.894511    -6.100275
3
Frame 703, t=0.352 ps, E=0.029350 Ha, T=280054.6 K
O     -1.665387    -0.323243     0.607166
H     13.636951    -2.604084    -3.527931
H     12.796106     8.906610    -6.109030
3
Frame 704, t=0.352 ps, E=0.029341 Ha, T=280055.2 K
O     -1.667761    -0.323701     0.608031
H     13.655407    -2.608924    -3.532903
H     12.815330     8.918710    -6.117785
3
Frame 705, t=0.353 ps, E=0.029332 Ha, T=280055.9 K
O     -1.670135    -0.324158     0.608896
H     13.673862    -2.613765    -3.537875
H     12.834554     8.930810    -6.126540
3
Frame 706, t=0.353 ps, E=0.029323 Ha, T=280056.5 K
O     -1.672509    -0.324615     0.609761
H     13.692318    -2.618605    -3.542847
H     12.853778     8.942909    -6.135294
3
Frame 707, t=0.354 ps, E=0.029313 Ha, T=280057.2 K
O     -1.674882    -0.325073     0.610626
H     13.710773    -2.623445    -3.547819
H     12.873002     8.955008    -6.144049
3
Frame 708, t=0.354 ps, E=0.029304 Ha, T=280057.8 K
O     -1.677256    -0.325530     0.611491
H     13.729229    -2.628285    -3.552791
H     12.892225     8.967108    -6.152804
3
Frame 709, t=0.355 ps, E=0.029295 Ha, T=280058.5 K
O     -1.679630    -0.325988     0.612356
H     13.747684    -2.633125    -3.557763
H     12.911449     8.979207    -6.161559
3
Frame 710, t=0.355 ps, E=0.029286 Ha, T=280059.1 K
O     -1.682004    -0.326445     0.613220
H     13.766140    -2.637965    -3.562735
H     12.930673     8.991307    -6.170314
3
Frame 711, t=0.356 ps, E=0.029277 Ha, T=280059.8 K
O     -1.684378    -0.326902     0.614085
H     13.784596    -2.642805    -3.567707
H     12.949897     9.003406    -6.179069
3
Frame 712, t=0.356 ps, E=0.029268 Ha, T=280060.4 K
O     -1.686752    -0.327360     0.614950
H     13.803052    -2.647645    -3.572679
H     12.969121     9.015506    -6.187824
3
Frame 713, t=0.357 ps, E=0.029258 Ha, T=280061.0 K
O     -1.689126    -0.327817     0.615815
H     13.821507    -2.652485    -3.577652
H     12.988345     9.027605    -6.196579
3
Frame 714, t=0.357 ps, E=0.029249 Ha, T=280061.7 K
O     -1.691500    -0.328274     0.616680
H     13.839963    -2.657325    -3.582624
H     13.007570     9.039704    -6.205334
3
Frame 715, t=0.358 ps, E=0.029240 Ha, T=280062.3 K
O     -1.693874    -0.328732     0.617545
H     13.858419    -2.662165    -3.587596
H     13.026794     9.051803    -6.214089
3
Frame 716, t=0.358 ps, E=0.029231 Ha, T=280062.9 K
O     -1.696248    -0.329189     0.618410
H     13.876875    -2.667005    -3.592568
H     13.046018     9.063903    -6.222844
3
Frame 717, t=0.359 ps, E=0.029222 Ha, T=280063.6 K
O     -1.698622    -0.329647     0.619274
H     13.895331    -2.671845    -3.597540
H     13.065242     9.076002    -6.231599
3
Frame 718, t=0.359 ps, E=0.029213 Ha, T=280064.2 K
O     -1.700996    -0.330104     0.620139
H     13.913787    -2.676685    -3.602513
H     13.084466     9.088101    -6.240354
3
Frame 719, t=0.360 ps, E=0.029204 Ha, T=280064.8 K
O     -1.703370    -0.330561     0.621004
H     13.932243    -2.681524    -3.607485
H     13.103691     9.100200    -6.249109
3
Frame 720, t=0.360 ps, E=0.029195 Ha, T=280065.4 K
O     -1.705744    -0.331019     0.621869
H     13.950699    -2.686364    -3.612457
H     13.122915     9.112299    -6.257863
3
Frame 721, t=0.361 ps, E=0.029187 Ha, T=280066.1 K
O     -1.708118    -0.331476     0.622734
H     13.969155    -2.691204    -3.617429
H     13.142139     9.124399    -6.266618
3
Frame 722, t=0.361 ps, E=0.029178 Ha, T=280066.7 K
O     -1.710492    -0.331933     0.623599
H     13.987611    -2.696043    -3.622402
H     13.161363     9.136498    -6.275373
3
Frame 723, t=0.362 ps, E=0.029169 Ha, T=280067.3 K
O     -1.712866    -0.332391     0.624464
H     14.006067    -2.700883    -3.627374
H     13.180588     9.148597    -6.284128
3
Frame 724, t=0.362 ps, E=0.029160 Ha, T=280067.9 K
O     -1.715240    -0.332848     0.625329
H     14.024524    -2.705722    -3.632346
H     13.199812     9.160696    -6.292883
3
Frame 725, t=0.363 ps, E=0.029151 Ha, T=280068.6 K
O     -1.717614    -0.333306     0.626193
H     14.042980    -2.710562    -3.637319
H     13.219037     9.172795    -6.301638
3
Frame 726, t=0.363 ps, E=0.029142 Ha, T=280069.2 K
O     -1.719988    -0.333763     0.627058
H     14.061436    -2.715402    -3.642291
H     13.238261     9.184894    -6.310393
3
Frame 727, t=0.364 ps, E=0.029134 Ha, T=280069.8 K
O     -1.722362    -0.334220     0.627923
H     14.079892    -2.720241    -3.647264
H     13.257486     9.196993    -6.319148
3
Frame 728, t=0.364 ps, E=0.029125 Ha, T=280070.4 K
O     -1.724737    -0.334678     0.628788
H     14.098349    -2.725080    -3.652236
H     13.276710     9.209092    -6.327903
3
Frame 729, t=0.365 ps, E=0.029116 Ha, T=280071.0 K
O     -1.727111    -0.335135     0.629653
H     14.116805    -2.729920    -3.657208
H     13.295935     9.221191    -6.336658
3
Frame 730, t=0.365 ps, E=0.029107 Ha, T=280071.6 K
O     -1.729485    -0.335592     0.630518
H     14.135262    -2.734759    -3.662181
H     13.315159     9.233290    -6.345413
3
Frame 731, t=0.366 ps, E=0.029099 Ha, T=280072.2 K
O     -1.731859    -0.336050     0.631383
H     14.153718    -2.739599    -3.667153
H     13.334384     9.245389    -6.354168
3
Frame 732, t=0.366 ps, E=0.029090 Ha, T=280072.8 K
O     -1.734233    -0.336507     0.632248
H     14.172175    -2.744438    -3.672126
H     13.353609     9.257488    -6.362923
3
Frame 733, t=0.367 ps, E=0.029082 Ha, T=280073.4 K
O     -1.736607    -0.336965     0.633112
H     14.190631    -2.749277    -3.677098
H     13.372833     9.269586    -6.371678
3
Frame 734, t=0.367 ps, E=0.029073 Ha, T=280074.0 K
O     -1.738981    -0.337422     0.633977
H     14.209088    -2.754116    -3.682071
H     13.392058     9.281685    -6.380433
3
Frame 735, t=0.368 ps, E=0.029064 Ha, T=280074.6 K
O     -1.741355    -0.337879     0.634842
H     14.227545    -2.758956    -3.687044
H     13.411283     9.293784    -6.389188
3
Frame 736, t=0.368 ps, E=0.029056 Ha, T=280075.2 K
O     -1.743729    -0.338337     0.635707
H     14.246001    -2.763795    -3.692016
H     13.430507     9.305883    -6.397943
3
Frame 737, t=0.369 ps, E=0.029047 Ha, T=280075.8 K
O     -1.746103    -0.338794     0.636572
H     14.264458    -2.768634    -3.696989
H     13.449732     9.317982    -6.406698
3
Frame 738, t=0.369 ps, E=0.029039 Ha, T=280076.4 K
O     -1.748477    -0.339251     0.637437
H     14.282915    -2.773473    -3.701961
H     13.468957     9.330080    -6.415453
3
Frame 739, t=0.370 ps, E=0.029030 Ha, T=280077.0 K
O     -1.750851    -0.339709     0.638302
H     14.301372    -2.778312    -3.706934
H     13.488182     9.342179    -6.424208
3
Frame 740, t=0.370 ps, E=0.029022 Ha, T=280077.6 K
O     -1.753225    -0.340166     0.639167
H     14.319829    -2.783151    -3.711907
H     13.507407     9.354278    -6.432963
3
Frame 741, t=0.371 ps, E=0.029013 Ha, T=280078.2 K
O     -1.755600    -0.340624     0.640032
H     14.338286    -2.787990    -3.716880
H     13.526632     9.366377    -6.441718
3
Frame 742, t=0.371 ps, E=0.029005 Ha, T=280078.8 K
O     -1.757974    -0.341081     0.640897
H     14.356742    -2.792829    -3.721852
H     13.545857     9.378475    -6.450473
3
Frame 743, t=0.372 ps, E=0.028997 Ha, T=280079.4 K
O     -1.760348    -0.341538     0.641761
H     14.375199    -2.797668    -3.726825
H     13.565082     9.390574    -6.459228
3
Frame 744, t=0.372 ps, E=0.028988 Ha, T=280080.0 K
O     -1.762722    -0.341996     0.642626
H     14.393656    -2.802507    -3.731798
H     13.584306     9.402672    -6.467983
3
Frame 745, t=0.373 ps, E=0.028980 Ha, T=280080.6 K
O     -1.765096    -0.342453     0.643491
H     14.412114    -2.807346    -3.736771
H     13.603531     9.414771    -6.476738
3
Frame 746, t=0.373 ps, E=0.028972 Ha, T=280081.2 K
O     -1.767470    -0.342911     0.644356
H     14.430571    -2.812185    -3.741743
H     13.622757     9.426870    -6.485493
3
Frame 747, t=0.374 ps, E=0.028963 Ha, T=280081.7 K
O     -1.769844    -0.343368     0.645221
H     14.449028    -2.817023    -3.746716
H     13.641982     9.438968    -6.494248
3
Frame 748, t=0.374 ps, E=0.028955 Ha, T=280082.3 K
O     -1.772218    -0.343825     0.646086
H     14.467485    -2.821862    -3.751689
H     13.661207     9.451067    -6.503004
3
Frame 749, t=0.375 ps, E=0.028947 Ha, T=280082.9 K
O     -1.774592    -0.344283     0.646951
H     14.485942    -2.826701    -3.756662
H     13.680432     9.463165    -6.511759
3
Frame 750, t=0.376 ps, E=0.028938 Ha, T=280083.5 K
O     -1.776967    -0.344740     0.647816
H     14.504399    -2.831540    -3.761635
H     13.699657     9.475264    -6.520514
3
Frame 751, t=0.376 ps, E=0.028930 Ha, T=280084.1 K
O     -1.779341    -0.345198     0.648681
H     14.522857    -2.836378    -3.766608
H     13.718882     9.487362    -6.529269
3
Frame 752, t=0.377 ps, E=0.028922 Ha, T=280084.6 K
O     -1.781715    -0.345655     0.649546
H     14.541314    -2.841217    -3.771581
H     13.738107     9.499461    -6.538024
3
Frame 753, t=0.377 ps, E=0.028914 Ha, T=280085.2 K
O     -1.784089    -0.346112     0.650411
H     14.559771    -2.846056    -3.776553
H     13.757333     9.511559    -6.546779
3
Frame 754, t=0.378 ps, E=0.028906 Ha, T=280085.8 K
O     -1.786463    -0.346570     0.651276
H     14.578229    -2.850894    -3.781526
H     13.776558     9.523657    -6.555534
3
Frame 755, t=0.378 ps, E=0.028898 Ha, T=280086.3 K
O     -1.788837    -0.347027     0.652140
H     14.596686    -2.855733    -3.786499
H     13.795783     9.535756    -6.564289
3
Frame 756, t=0.379 ps, E=0.028889 Ha, T=280086.9 K
O     -1.791212    -0.347485     0.653005
H     14.615144    -2.860571    -3.791472
H     13.815008     9.547854    -6.573044
3
Frame 757, t=0.379 ps, E=0.028881 Ha, T=280087.5 K
O     -1.793586    -0.347942     0.653870
H     14.633601    -2.865410    -3.796445
H     13.834234     9.559952    -6.581799
3
Frame 758, t=0.380 ps, E=0.028873 Ha, T=280088.1 K
O     -1.795960    -0.348399     0.654735
H     14.652059    -2.870248    -3.801418
H     13.853459     9.572051    -6.590554
3
Frame 759, t=0.380 ps, E=0.028865 Ha, T=280088.6 K
O     -1.798334    -0.348857     0.655600
H     14.670516    -2.875087    -3.806392
H     13.872685     9.584149    -6.599309
3
Frame 760, t=0.381 ps, E=0.028857 Ha, T=280089.2 K
O     -1.800708    -0.349314     0.656465
H     14.688974    -2.879925    -3.811365
H     13.891910     9.596247    -6.608064
3
Frame 761, t=0.381 ps, E=0.028849 Ha, T=280089.7 K
O     -1.803082    -0.349772     0.657330
H     14.707432    -2.884764    -3.816338
H     13.911135     9.608346    -6.616819
3
Frame 762, t=0.382 ps, E=0.028841 Ha, T=280090.3 K
O     -1.805457    -0.350229     0.658195
H     14.725889    -2.889602    -3.821311
H     13.930361     9.620444    -6.625574
3
Frame 763, t=0.382 ps, E=0.028833 Ha, T=280090.9 K
O     -1.807831    -0.350686     0.659060
H     14.744347    -2.894440    -3.826284
H     13.949586     9.632542    -6.634330
3
Frame 764, t=0.383 ps, E=0.028825 Ha, T=280091.4 K
O     -1.810205    -0.351144     0.659925
H     14.762805    -2.899279    -3.831257
H     13.968812     9.644640    -6.643085
3
Frame 765, t=0.383 ps, E=0.028817 Ha, T=280092.0 K
O     -1.812579    -0.351601     0.660790
H     14.781263    -2.904117    -3.836230
H     13.988037     9.656738    -6.651840
3
Frame 766, t=0.384 ps, E=0.028809 Ha, T=280092.5 K
O     -1.814953    -0.352059     0.661655
H     14.799721    -2.908955    -3.841203
H     14.007263     9.668836    -6.660595
3
Frame 767, t=0.384 ps, E=0.028802 Ha, T=280093.1 K
O     -1.817328    -0.352516     0.662520
H     14.818178    -2.913793    -3.846177
H     14.026489     9.680935    -6.669350
3
Frame 768, t=0.385 ps, E=0.028794 Ha, T=280093.6 K
O     -1.819702    -0.352973     0.663385
H     14.836636    -2.918631    -3.851150
H     14.045714     9.693033    -6.678105
3
Frame 769, t=0.385 ps, E=0.028786 Ha, T=280094.2 K
O     -1.822076    -0.353431     0.664249
H     14.855094    -2.923470    -3.856123
H     14.064940     9.705131    -6.686860
3
Frame 770, t=0.386 ps, E=0.028778 Ha, T=280094.7 K
O     -1.824450    -0.353888     0.665114
H     14.873552    -2.928308    -3.861096
H     14.084166     9.717229    -6.695615
3
Frame 771, t=0.386 ps, E=0.028770 Ha, T=280095.3 K
O     -1.826824    -0.354346     0.665979
H     14.892010    -2.933146    -3.866070
H     14.103391     9.729327    -6.704370
3
Frame 772, t=0.387 ps, E=0.028762 Ha, T=280095.8 K
O     -1.829199    -0.354803     0.666844
H     14.910468    -2.937984    -3.871043
H     14.122617     9.741425    -6.713126
3
Frame 773, t=0.387 ps, E=0.028755 Ha, T=280096.4 K
O     -1.831573    -0.355260     0.667709
H     14.928927    -2.942822    -3.876016
H     14.141843     9.753523    -6.721881
3
Frame 774, t=0.388 ps, E=0.028747 Ha, T=280096.9 K
O     -1.833947    -0.355718     0.668574
H     14.947385    -2.947660    -3.880990
H     14.161069     9.765621    -6.730636
3
Frame 775, t=0.388 ps, E=0.028739 Ha, T=280097.5 K
O     -1.836321    -0.356175     0.669439
H     14.965843    -2.952498    -3.885963
H     14.180294     9.777719    -6.739391
3
Frame 776, t=0.389 ps, E=0.028731 Ha, T=280098.0 K
O     -1.838696    -0.356633     0.670304
H     14.984301    -2.957336    -3.890936
H     14.199520     9.789817    -6.748146
3
Frame 777, t=0.389 ps, E=0.028724 Ha, T=280098.5 K
O     -1.841070    -0.357090     0.671169
H     15.002759    -2.962174    -3.895910
H     14.218746     9.801915    -6.756901
3
Frame 778, t=0.390 ps, E=0.028716 Ha, T=280099.1 K
O     -1.843444    -0.357547     0.672034
H     15.021218    -2.967011    -3.900883
H     14.237972     9.814013    -6.765656
3
Frame 779, t=0.390 ps, E=0.028708 Ha, T=280099.6 K
O     -1.845818    -0.358005     0.672899
H     15.039676    -2.971849    -3.905857
H     14.257198     9.826110    -6.774411
3
Frame 780, t=0.391 ps, E=0.028701 Ha, T=280100.2 K
O     -1.848193    -0.358462     0.673764
H     15.058134    -2.976687    -3.910830
H     14.276424     9.838208    -6.783167
3
Frame 781, t=0.391 ps, E=0.028693 Ha, T=280100.7 K
O     -1.850567    -0.358920     0.674629
H     15.076593    -2.981525    -3.915803
H     14.295650     9.850306    -6.791922
3
Frame 782, t=0.392 ps, E=0.028686 Ha, T=280101.2 K
O     -1.852941    -0.359377     0.675494
H     15.095051    -2.986363    -3.920777
H     14.314876     9.862404    -6.800677
3
Frame 783, t=0.392 ps, E=0.028678 Ha, T=280101.8 K
O     -1.855315    -0.359834     0.676359
H     15.113510    -2.991200    -3.925750
H     14.334102     9.874502    -6.809432
3
Frame 784, t=0.393 ps, E=0.028670 Ha, T=280102.3 K
O     -1.857690    -0.360292     0.677224
H     15.131968    -2.996038    -3.930724
H     14.353328     9.886600    -6.818187
3
Frame 785, t=0.393 ps, E=0.028663 Ha, T=280102.8 K
O     -1.860064    -0.360749     0.678089
H     15.150427    -3.000876    -3.935697
H     14.372554     9.898697    -6.826942
3
Frame 786, t=0.394 ps, E=0.028655 Ha, T=280103.3 K
O     -1.862438    -0.361207     0.678954
H     15.168885    -3.005713    -3.940671
H     14.391780     9.910795    -6.835698
3
Frame 787, t=0.394 ps, E=0.028648 Ha, T=280103.9 K
O     -1.864813    -0.361664     0.679819
H     15.187344    -3.010551    -3.945645
H     14.411006     9.922893    -6.844453
3
Frame 788, t=0.395 ps, E=0.028640 Ha, T=280104.4 K
O     -1.867187    -0.362122     0.680684
H     15.205802    -3.015389    -3.950618
H     14.430232     9.934990    -6.853208
3
Frame 789, t=0.395 ps, E=0.028633 Ha, T=280104.9 K
O     -1.869561    -0.362579     0.681549
H     15.224261    -3.020226    -3.955592
H     14.449459     9.947088    -6.861963
3
Frame 790, t=0.396 ps, E=0.028625 Ha, T=280105.4 K
O     -1.871935    -0.363036     0.682414
H     15.242720    -3.025064    -3.960565
H     14.468685     9.959186    -6.870718
3
Frame 791, t=0.396 ps, E=0.028618 Ha, T=280106.0 K
O     -1.874310    -0.363494     0.683278
H     15.261179    -3.029901    -3.965539
H     14.487911     9.971283    -6.879473
3
Frame 792, t=0.397 ps, E=0.028611 Ha, T=280106.5 K
O     -1.876684    -0.363951     0.684143
H     15.279637    -3.034739    -3.970513
H     14.507137     9.983381    -6.888229
3
Frame 793, t=0.397 ps, E=0.028603 Ha, T=280107.0 K
O     -1.879058    -0.364409     0.685008
H     15.298096    -3.039576    -3.975486
H     14.526363     9.995479    -6.896984
3
Frame 794, t=0.398 ps, E=0.028596 Ha, T=280107.5 K
O     -1.881433    -0.364866     0.685873
H     15.316555    -3.044413    -3.980460
H     14.545590    10.007576    -6.905739
3
Frame 795, t=0.398 ps, E=0.028589 Ha, T=280108.0 K
O     -1.883807    -0.365323     0.686738
H     15.335014    -3.049251    -3.985434
H     14.564816    10.019674    -6.914494
3
Frame 796, t=0.399 ps, E=0.028581 Ha, T=280108.6 K
O     -1.886181    -0.365781     0.687603
H     15.353473    -3.054088    -3.990407
H     14.584042    10.031771    -6.923249
3
Frame 797, t=0.399 ps, E=0.028574 Ha, T=280109.1 K
O     -1.888556    -0.366238     0.688468
H     15.371932    -3.058926    -3.995381
H     14.603269    10.043869    -6.932004
3
Frame 798, t=0.400 ps, E=0.028567 Ha, T=280109.6 K
O     -1.890930    -0.366696     0.689333
H     15.390391    -3.063763    -4.000355
H     14.622495    10.055966    -6.940760
3
Frame 799, t=0.400 ps, E=0.028559 Ha, T=280110.1 K
O     -1.893304    -0.367153     0.690198
H     15.408850    -3.068600    -4.005329
H     14.641722    10.068064    -6.949515
3
Frame 800, t=0.401 ps, E=0.028552 Ha, T=280110.6 K
O     -1.895679    -0.367611     0.691063
H     15.427309    -3.073437    -4.010303
H     14.660948    10.080161    -6.958270
3
Frame 801, t=0.401 ps, E=0.028545 Ha, T=280111.1 K
O     -1.898053    -0.368068     0.691928
H     15.445768    -3.078275    -4.015276
H     14.680174    10.092259    -6.967025
3
Frame 802, t=0.402 ps, E=0.028538 Ha, T=280111.6 K
O     -1.900427    -0.368525     0.692793
H     15.464227    -3.083112    -4.020250
H     14.699401    10.104356    -6.975780
3
Frame 803, t=0.402 ps, E=0.028530 Ha, T=280112.1 K
O     -1.902802    -0.368983     0.693658
H     15.482686    -3.087949    -4.025224
H     14.718627    10.116453    -6.984536
3
Frame 804, t=0.403 ps, E=0.028523 Ha, T=280112.6 K
O     -1.905176    -0.369440     0.694523
H     15.501145    -3.092786    -4.030198
H     14.737854    10.128551    -6.993291
3
Frame 805, t=0.403 ps, E=0.028516 Ha, T=280113.1 K
O     -1.907550    -0.369898     0.695388
H     15.519605    -3.097623    -4.035172
H     14.757081    10.140648    -7.002046
3
Frame 806, t=0.404 ps, E=0.028509 Ha, T=280113.6 K
O     -1.909925    -0.370355     0.696253
H     15.538064    -3.102460    -4.040146
H     14.776307    10.152746    -7.010801
3
Frame 807, t=0.404 ps, E=0.028502 Ha, T=280114.1 K
O     -1.912299    -0.370813     0.697118
H     15.556523    -3.107297    -4.045120
H     14.795534    10.164843    -7.019557
3
Frame 808, t=0.405 ps, E=0.028494 Ha, T=280114.6 K
O     -1.914673    -0.371270     0.697983
H     15.574982    -3.112134    -4.050093
H     14.814760    10.176940    -7.028312
3
Frame 809, t=0.405 ps, E=0.028487 Ha, T=280115.1 K
O     -1.917048    -0.371727     0.698848
H     15.593442    -3.116971    -4.055067
H     14.833987    10.189038    -7.037067
3
Frame 810, t=0.406 ps, E=0.028480 Ha, T=280115.6 K
O     -1.919422    -0.372185     0.699713
H     15.611901    -3.121808    -4.060041
H     14.853214    10.201135    -7.045822
3
Frame 811, t=0.406 ps, E=0.028473 Ha, T=280116.1 K
O     -1.921797    -0.372642     0.700578
H     15.630361    -3.126645    -4.065015
H     14.872440    10.213232    -7.054577
3
Frame 812, t=0.406 ps, E=0.028466 Ha, T=280116.6 K
O     -1.924171    -0.373100     0.701443
H     15.648820    -3.131482    -4.069989
H     14.891667    10.225329    -7.063333
3
Frame 813, t=0.407 ps, E=0.028459 Ha, T=280117.1 K
O     -1.926545    -0.373557     0.702308
H     15.667279    -3.136319    -4.074963
H     14.910894    10.237426    -7.072088
3
Frame 814, t=0.407 ps, E=0.028452 Ha, T=280117.6 K
O     -1.928920    -0.374015     0.703173
H     15.685739    -3.141156    -4.079937
H     14.930121    10.249524    -7.080843
3
Frame 815, t=0.408 ps, E=0.028445 Ha, T=280118.1 K
O     -1.931294    -0.374472     0.704038
H     15.704199    -3.145993    -4.084911
H     14.949347    10.261621    -7.089598
3
Frame 816, t=0.408 ps, E=0.028438 Ha, T=280118.6 K
O     -1.933668    -0.374929     0.704903
H     15.722658    -3.150830    -4.089885
H     14.968574    10.273718    -7.098354
3
Frame 817, t=0.409 ps, E=0.028431 Ha, T=280119.1 K
O     -1.936043    -0.375387     0.705768
H     15.741118    -3.155666    -4.094860
H     14.987801    10.285815    -7.107109
3
Frame 818, t=0.409 ps, E=0.028424 Ha, T=280119.6 K
O     -1.938417    -0.375844     0.706633
H     15.759577    -3.160503    -4.099834
H     15.007028    10.297912    -7.115864
3
Frame 819, t=0.410 ps, E=0.028417 Ha, T=280120.1 K
O     -1.940792    -0.376302     0.707498
H     15.778037    -3.165340    -4.104808
H     15.026255    10.310009    -7.124619
3
Frame 820, t=0.410 ps, E=0.028410 Ha, T=280120.5 K
O     -1.943166    -0.376759     0.708363
H     15.796497    -3.170177    -4.109782
H     15.045482    10.322106    -7.133375
3
Frame 821, t=0.411 ps, E=0.028403 Ha, T=280121.0 K
O     -1.945541    -0.377217     0.709228
H     15.814957    -3.175013    -4.114756
H     15.064709    10.334204    -7.142130
3
Frame 822, t=0.411 ps, E=0.028396 Ha, T=280121.5 K
O     -1.947915    -0.377674     0.710093
H     15.833416    -3.179850    -4.119730
H     15.083936    10.346301    -7.150885
3
Frame 823, t=0.412 ps, E=0.028390 Ha, T=280122.0 K
O     -1.950289    -0.378131     0.710958
H     15.851876    -3.184687    -4.124704
H     15.103163    10.358398    -7.159640
3
Frame 824, t=0.412 ps, E=0.028383 Ha, T=280122.5 K
O     -1.952664    -0.378589     0.711823
H     15.870336    -3.189523    -4.129679
H     15.122390    10.370495    -7.168396
3
Frame 825, t=0.413 ps, E=0.028376 Ha, T=280123.0 K
O     -1.955038    -0.379046     0.712688
H     15.888796    -3.194360    -4.134653
H     15.141617    10.382592    -7.177151
3
Frame 826, t=0.413 ps, E=0.028369 Ha, T=280123.4 K
O     -1.957413    -0.379504     0.713553
H     15.907256    -3.199196    -4.139627
H     15.160844    10.394689    -7.185906
3
Frame 827, t=0.414 ps, E=0.028362 Ha, T=280123.9 K
O     -1.959787    -0.379961     0.714418
H     15.925716    -3.204033    -4.144601
H     15.180071    10.406786    -7.194662
3
Frame 828, t=0.414 ps, E=0.028355 Ha, T=280124.4 K
O     -1.962161    -0.380419     0.715283
H     15.944176    -3.208869    -4.149576
H     15.199298    10.418883    -7.203417
3
Frame 829, t=0.415 ps, E=0.028349 Ha, T=280124.9 K
O     -1.964536    -0.380876     0.716148
H     15.962636    -3.213706    -4.154550
H     15.218525    10.430979    -7.212172
3
Frame 830, t=0.415 ps, E=0.028342 Ha, T=280125.3 K
O     -1.966910    -0.381333     0.717013
H     15.981096    -3.218542    -4.159524
H     15.237752    10.443076    -7.220927
3
Frame 831, t=0.416 ps, E=0.028335 Ha, T=280125.8 K
O     -1.969285    -0.381791     0.717878
H     15.999556    -3.223379    -4.164498
H     15.256979    10.455173    -7.229683
3
Frame 832, t=0.416 ps, E=0.028328 Ha, T=280126.3 K
O     -1.971659    -0.382248     0.718743
H     16.018016    -3.228215    -4.169473
H     15.276206    10.467270    -7.238438
3
Frame 833, t=0.417 ps, E=0.028322 Ha, T=280126.8 K
O     -1.974034    -0.382706     0.719608
H     16.036476    -3.233052    -4.174447
H     15.295434    10.479367    -7.247193
3
Frame 834, t=0.417 ps, E=0.028315 Ha, T=280127.2 K
O     -1.976408    -0.383163     0.720473
H     16.054936    -3.237888    -4.179421
H     15.314661    10.491464    -7.255949
3
Frame 835, t=0.418 ps, E=0.028308 Ha, T=280127.7 K
O     -1.978783    -0.383621     0.721338
H     16.073396    -3.242724    -4.184396
H     15.333888    10.503561    -7.264704
3
Frame 836, t=0.418 ps, E=0.028302 Ha, T=280128.2 K
O     -1.981157    -0.384078     0.722203
H     16.091857    -3.247561    -4.189370
H     15.353115    10.515657    -7.273459
3
Frame 837, t=0.419 ps, E=0.028295 Ha, T=280128.6 K
O     -1.983532    -0.384536     0.723068
H     16.110317    -3.252397    -4.194345
H     15.372343    10.527754    -7.282214
3
Frame 838, t=0.419 ps, E=0.028288 Ha, T=280129.1 K
O     -1.985906    -0.384993     0.723933
H     16.128777    -3.257233    -4.199319
H     15.391570    10.539851    -7.290970
3
Frame 839, t=0.420 ps, E=0.028282 Ha, T=280129.6 K
O     -1.988280    -0.385450     0.724798
H     16.147237    -3.262069    -4.204293
H     15.410797    10.551948    -7.299725
3
Frame 840, t=0.420 ps, E=0.028275 Ha, T=280130.0 K
O     -1.990655    -0.385908     0.725663
H     16.165698    -3.266906    -4.209268
H     15.430024    10.564044    -7.308480
3
Frame 841, t=0.421 ps, E=0.028269 Ha, T=280130.5 K
O     -1.993029    -0.386365     0.726529
H     16.184158    -3.271742    -4.214242
H     15.449252    10.576141    -7.317236
3
Frame 842, t=0.421 ps, E=0.028262 Ha, T=280131.0 K
O     -1.995404    -0.386823     0.727394
H     16.202619    -3.276578    -4.219217
H     15.468479    10.588238    -7.325991
3
Frame 843, t=0.422 ps, E=0.028255 Ha, T=280131.4 K
O     -1.997778    -0.387280     0.728259
H     16.221079    -3.281414    -4.224191
H     15.487707    10.600335    -7.334746
3
Frame 844, t=0.422 ps, E=0.028249 Ha, T=280131.9 K
O     -2.000153    -0.387738     0.729124
H     16.239539    -3.286250    -4.229166
H     15.506934    10.612431    -7.343502
3
Frame 845, t=0.423 ps, E=0.028242 Ha, T=280132.3 K
O     -2.002527    -0.388195     0.729989
H     16.258000    -3.291086    -4.234140
H     15.526162    10.624528    -7.352257
3
Frame 846, t=0.423 ps, E=0.028236 Ha, T=280132.8 K
O     -2.004902    -0.388653     0.730854
H     16.276461    -3.295922    -4.239115
H     15.545389    10.636624    -7.361012
3
Frame 847, t=0.424 ps, E=0.028229 Ha, T=280133.2 K
O     -2.007276    -0.389110     0.731719
H     16.294921    -3.300758    -4.244089
H     15.564617    10.648721    -7.369768
3
Frame 848, t=0.424 ps, E=0.028223 Ha, T=280133.7 K
O     -2.009651    -0.389567     0.732584
H     16.313382    -3.305594    -4.249064
H     15.583844    10.660818    -7.378523
3
Frame 849, t=0.425 ps, E=0.028216 Ha, T=280134.2 K
O     -2.012025    -0.390025     0.733449
H     16.331842    -3.310430    -4.254039
H     15.603072    10.672914    -7.387278
3
Frame 850, t=0.425 ps, E=0.028210 Ha, T=280134.6 K
O     -2.014400    -0.390482     0.734314
H     16.350303    -3.315266    -4.259013
H     15.622299    10.685011    -7.396034
3
Frame 851, t=0.426 ps, E=0.028203 Ha, T=280135.1 K
O     -2.016774    -0.390940     0.735179
H     16.368764    -3.320102    -4.263988
H     15.641527    10.697107    -7.404789
3
Frame 852, t=0.426 ps, E=0.028197 Ha, T=280135.5 K
O     -2.019149    -0.391397     0.736044
H     16.387224    -3.324938    -4.268962
H     15.660754    10.709204    -7.413544
3
Frame 853, t=0.427 ps, E=0.028191 Ha, T=280136.0 K
O     -2.021523    -0.391855     0.736909
H     16.405685    -3.329774    -4.273937
H     15.679982    10.721300    -7.422300
3
Frame 854, t=0.427 ps, E=0.028184 Ha, T=280136.4 K
O     -2.023898    -0.392312     0.737774
H     16.424146    -3.334610    -4.278912
H     15.699210    10.733397    -7.431055
3
Frame 855, t=0.428 ps, E=0.028178 Ha, T=280136.9 K
O     -2.026272    -0.392770     0.738639
H     16.442607    -3.339446    -4.283886
H     15.718437    10.745493    -7.439810
3
Frame 856, t=0.428 ps, E=0.028171 Ha, T=280137.3 K
O     -2.028647    -0.393227     0.739504
H     16.461068    -3.344282    -4.288861
H     15.737665    10.757590    -7.448566
3
Frame 857, t=0.429 ps, E=0.028165 Ha, T=280137.7 K
O     -2.031021    -0.393684     0.740369
H     16.479528    -3.349117    -4.293836
H     15.756893    10.769686    -7.457321
3
Frame 858, t=0.429 ps, E=0.028159 Ha, T=280138.2 K
O     -2.033396    -0.394142     0.741234
H     16.497989    -3.353953    -4.298811
H     15.776120    10.781783    -7.466076
3
Frame 859, t=0.430 ps, E=0.028152 Ha, T=280138.6 K
O     -2.035771    -0.394599     0.742099
H     16.516450    -3.358789    -4.303785
H     15.795348    10.793879    -7.474832
3
Frame 860, t=0.430 ps, E=0.028146 Ha, T=280139.1 K
O     -2.038145    -0.395057     0.742964
H     16.534911    -3.363625    -4.308760
H     15.814576    10.805976    -7.483587
3
Frame 861, t=0.431 ps, E=0.028140 Ha, T=280139.5 K
O     -2.040520    -0.395514     0.743829
H     16.553372    -3.368460    -4.313735
H     15.833804    10.818072    -7.492342
3
Frame 862, t=0.431 ps, E=0.028134 Ha, T=280140.0 K
O     -2.042894    -0.395972     0.744694
H     16.571833    -3.373296    -4.318710
H     15.853031    10.830168    -7.501098
3
Frame 863, t=0.432 ps, E=0.028127 Ha, T=280140.4 K
O     -2.045269    -0.396429     0.745559
H     16.590294    -3.378132    -4.323684
H     15.872259    10.842265    -7.509853
3
Frame 864, t=0.432 ps, E=0.028121 Ha, T=280140.8 K
O     -2.047643    -0.396887     0.746425
H     16.608755    -3.382967    -4.328659
H     15.891487    10.854361    -7.518608
3
Frame 865, t=0.433 ps, E=0.028115 Ha, T=280141.3 K
O     -2.050018    -0.397344     0.747290
H     16.627216    -3.387803    -4.333634
H     15.910715    10.866457    -7.527364
3
Frame 866, t=0.433 ps, E=0.028109 Ha, T=280141.7 K
O     -2.052392    -0.397802     0.748155
H     16.645677    -3.392638    -4.338609
H     15.929943    10.878554    -7.536119
3
Frame 867, t=0.434 ps, E=0.028102 Ha, T=280142.2 K
O     -2.054767    -0.398259     0.749020
H     16.664139    -3.397474    -4.343584
H     15.949171    10.890650    -7.544875
3
Frame 868, t=0.434 ps, E=0.028096 Ha, T=280142.6 K
O     -2.057141    -0.398716     0.749885
H     16.682600    -3.402310    -4.348559
H     15.968399    10.902746    -7.553630
3
Frame 869, t=0.435 ps, E=0.028090 Ha, T=280143.0 K
O     -2.059516    -0.399174     0.750750
H     16.701061    -3.407145    -4.353533
H     15.987627    10.914842    -7.562385
3
Frame 870, t=0.435 ps, E=0.028084 Ha, T=280143.5 K
O     -2.061891    -0.399631     0.751615
H     16.719522    -3.411981    -4.358508
H     16.006855    10.926939    -7.571141
3
Frame 871, t=0.436 ps, E=0.028078 Ha, T=280143.9 K
O     -2.064265    -0.400089     0.752480
H     16.737984    -3.416816    -4.363483
H     16.026083    10.939035    -7.579896
3
Frame 872, t=0.436 ps, E=0.028072 Ha, T=280144.3 K
O     -2.066640    -0.400546     0.753345
H     16.756445    -3.421651    -4.368458
H     16.045311    10.951131    -7.588651
3
Frame 873, t=0.437 ps, E=0.028065 Ha, T=280144.7 K
O     -2.069014    -0.401004     0.754210
H     16.774906    -3.426487    -4.373433
H     16.064539    10.963227    -7.597407
3
Frame 874, t=0.438 ps, E=0.028059 Ha, T=280145.2 K
O     -2.071389    -0.401461     0.755075
H     16.793368    -3.431322    -4.378408
H     16.083767    10.975323    -7.606162
3
Frame 875, t=0.438 ps, E=0.028053 Ha, T=280145.6 K
O     -2.073764    -0.401919     0.755940
H     16.811829    -3.436158    -4.383383
H     16.102995    10.987419    -7.614918
3
Frame 876, t=0.439 ps, E=0.028047 Ha, T=280146.0 K
O     -2.076138    -0.402376     0.756805
H     16.830290    -3.440993    -4.388358
H     16.122223    10.999516    -7.623673
3
Frame 877, t=0.439 ps, E=0.028041 Ha, T=280146.5 K
O     -2.078513    -0.402834     0.757670
H     16.848752    -3.445828    -4.393333
H     16.141451    11.011612    -7.632428
3
Frame 878, t=0.440 ps, E=0.028035 Ha, T=280146.9 K
O     -2.080887    -0.403291     0.758535
H     16.867213    -3.450664    -4.398308
H     16.160679    11.023708    -7.641184
3
Frame 879, t=0.440 ps, E=0.028029 Ha, T=280147.3 K
O     -2.083262    -0.403748     0.759400
H     16.885675    -3.455499    -4.403283
H     16.179907    11.035804    -7.649939
3
Frame 880, t=0.441 ps, E=0.028023 Ha, T=280147.7 K
O     -2.085636    -0.404206     0.760266
H     16.904136    -3.460334    -4.408258
H     16.199136    11.047900    -7.658695
3
Frame 881, t=0.441 ps, E=0.028017 Ha, T=280148.2 K
O     -2.088011    -0.404663     0.761131
H     16.922598    -3.465169    -4.413233
H     16.218364    11.059996    -7.667450
3
Frame 882, t=0.442 ps, E=0.028011 Ha, T=280148.6 K
O     -2.090386    -0.405121     0.761996
H     16.941060    -3.470005    -4.418208
H     16.237592    11.072092    -7.676205
3
Frame 883, t=0.442 ps, E=0.028005 Ha, T=280149.0 K
O     -2.092760    -0.405578     0.762861
H     16.959521    -3.474840    -4.423183
H     16.256820    11.084188    -7.684961
3
Frame 884, t=0.443 ps, E=0.027999 Ha, T=280149.4 K
O     -2.095135    -0.406036     0.763726
H     16.977983    -3.479675    -4.428158
H     16.276048    11.096284    -7.693716
3
Frame 885, t=0.443 ps, E=0.027993 Ha, T=280149.8 K
O     -2.097510    -0.406493     0.764591
H     16.996444    -3.484510    -4.433133
H     16.295277    11.108380    -7.702472
3
Frame 886, t=0.444 ps, E=0.027987 Ha, T=280150.2 K
O     -2.099884    -0.406951     0.765456
H     17.014906    -3.489345    -4.438109
H     16.314505    11.120476    -7.711227
3
Frame 887, t=0.444 ps, E=0.027981 Ha, T=280150.7 K
O     -2.102259    -0.407408     0.766321
H     17.033368    -3.494180    -4.443084
H     16.333733    11.132572    -7.719982
3
Frame 888, t=0.445 ps, E=0.027975 Ha, T=280151.1 K
O     -2.104633    -0.407866     0.767186
H     17.051830    -3.499015    -4.448059
H     16.352962    11.144668    -7.728738
3
Frame 889, t=0.445 ps, E=0.027969 Ha, T=280151.5 K
O     -2.107008    -0.408323     0.768051
H     17.070291    -3.503851    -4.453034
H     16.372190    11.156764    -7.737493
3
Frame 890, t=0.446 ps, E=0.027963 Ha, T=280151.9 K
O     -2.109383    -0.408781     0.768916
H     17.088753    -3.508686    -4.458009
H     16.391418    11.168860    -7.746249
3
Frame 891, t=0.446 ps, E=0.027957 Ha, T=280152.3 K
O     -2.111757    -0.409238     0.769781
H     17.107215    -3.513521    -4.462984
H     16.410647    11.180956    -7.755004
3
Frame 892, t=0.447 ps, E=0.027952 Ha, T=280152.7 K
O     -2.114132    -0.409695     0.770646
H     17.125677    -3.518356    -4.467960
H     16.429875    11.193052    -7.763760
3
Frame 893, t=0.447 ps, E=0.027946 Ha, T=280153.1 K
O     -2.116507    -0.410153     0.771512
H     17.144139    -3.523191    -4.472935
H     16.449103    11.205147    -7.772515
3
Frame 894, t=0.448 ps, E=0.027940 Ha, T=280153.6 K
O     -2.118881    -0.410610     0.772377
H     17.162601    -3.528026    -4.477910
H     16.468332    11.217243    -7.781270
3
Frame 895, t=0.448 ps, E=0.027934 Ha, T=280154.0 K
O     -2.121256    -0.411068     0.773242
H     17.181063    -3.532860    -4.482885
H     16.487560    11.229339    -7.790026
3
Frame 896, t=0.449 ps, E=0.027928 Ha, T=280154.4 K
O     -2.123630    -0.411525     0.774107
H     17.199525    -3.537695    -4.487861
H     16.506789    11.241435    -7.798781
3
Frame 897, t=0.449 ps, E=0.027922 Ha, T=280154.8 K
O     -2.126005    -0.411983     0.774972
H     17.217987    -3.542530    -4.492836
H     16.526017    11.253531    -7.807537
3
Frame 898, t=0.450 ps, E=0.027917 Ha, T=280155.2 K
O     -2.128380    -0.412440     0.775837
H     17.236449    -3.547365    -4.497811
H     16.545246    11.265627    -7.816292
3
Frame 899, t=0.450 ps, E=0.027911 Ha, T=280155.6 K
O     -2.130754    -0.412898     0.776702
H     17.254911    -3.552200    -4.502787
H     16.564474    11.277722    -7.825048
3
Frame 900, t=0.451 ps, E=0.027905 Ha, T=280156.0 K
O     -2.133129    -0.413355     0.777567
H     17.273373    -3.557035    -4.507762
H     16.583703    11.289818    -7.833803
3
Frame 901, t=0.451 ps, E=0.027899 Ha, T=280156.4 K
O     -2.135504    -0.413813     0.778432
H     17.291835    -3.561870    -4.512737
H     16.602931    11.301914    -7.842559
3
Frame 902, t=0.452 ps, E=0.027893 Ha, T=280156.8 K
O     -2.137878    -0.414270     0.779297
H     17.310297    -3.566704    -4.517713
H     16.622160    11.314010    -7.851314
3
Frame 903, t=0.452 ps, E=0.027888 Ha, T=280157.2 K
O     -2.140253    -0.414728     0.780162
H     17.328759    -3.571539    -4.522688
H     16.641389    11.326105    -7.860069
3
Frame 904, t=0.453 ps, E=0.027882 Ha, T=280157.6 K
O     -2.142628    -0.415185     0.781028
H     17.347222    -3.576374    -4.527663
H     16.660617    11.338201    -7.868825
3
Frame 905, t=0.453 ps, E=0.027876 Ha, T=280158.0 K
O     -2.145002    -0.415643     0.781893
H     17.365684    -3.581209    -4.532639
H     16.679846    11.350297    -7.877580
3
Frame 906, t=0.454 ps, E=0.027871 Ha, T=280158.4 K
O     -2.147377    -0.416100     0.782758
H     17.384146    -3.586043    -4.537614
H     16.699075    11.362392    -7.886336
3
Frame 907, t=0.454 ps, E=0.027865 Ha, T=280158.8 K
O     -2.149752    -0.416557     0.783623
H     17.402608    -3.590878    -4.542589
H     16.718303    11.374488    -7.895091
3
Frame 908, t=0.455 ps, E=0.027859 Ha, T=280159.2 K
O     -2.152126    -0.417015     0.784488
H     17.421071    -3.595713    -4.547565
H     16.737532    11.386584    -7.903847
3
Frame 909, t=0.455 ps, E=0.027854 Ha, T=280159.6 K
O     -2.154501    -0.417472     0.785353
H     17.439533    -3.600547    -4.552540
H     16.756761    11.398679    -7.912602
3
Frame 910, t=0.456 ps, E=0.027848 Ha, T=280160.0 K
O     -2.156876    -0.417930     0.786218
H     17.457995    -3.605382    -4.557516
H     16.775989    11.410775    -7.921358
3
Frame 911, t=0.456 ps, E=0.027842 Ha, T=280160.4 K
O     -2.159251    -0.418387     0.787083
H     17.476458    -3.610216    -4.562491
H     16.795218    11.422870    -7.930113
3
Frame 912, t=0.457 ps, E=0.027837 Ha, T=280160.8 K
O     -2.161625    -0.418845     0.787948
H     17.494920    -3.615051    -4.567467
H     16.814447    11.434966    -7.938869
3
Frame 913, t=0.457 ps, E=0.027831 Ha, T=280161.2 K
O     -2.164000    -0.419302     0.788813
H     17.513383    -3.619886    -4.572442
H     16.833676    11.447062    -7.947624
3
Frame 914, t=0.458 ps, E=0.027825 Ha, T=280161.6 K
O     -2.166375    -0.419760     0.789679
H     17.531845    -3.624720    -4.577418
H     16.852905    11.459157    -7.956380
3
Frame 915, t=0.458 ps, E=0.027820 Ha, T=280162.0 K
O     -2.168749    -0.420217     0.790544
H     17.550308    -3.629555    -4.582393
H     16.872133    11.471253    -7.965135
3
Frame 916, t=0.459 ps, E=0.027814 Ha, T=280162.4 K
O     -2.171124    -0.420675     0.791409
H     17.568770    -3.634389    -4.587369
H     16.891362    11.483348    -7.973891
3
Frame 917, t=0.459 ps, E=0.027809 Ha, T=280162.8 K
O     -2.173499    -0.421132     0.792274
H     17.587233    -3.639224    -4.592344
H     16.910591    11.495444    -7.982646
3
Frame 918, t=0.460 ps, E=0.027803 Ha, T=280163.1 K
O     -2.175873    -0.421590     0.793139
H     17.605695    -3.644058    -4.597320
H     16.929820    11.507539    -7.991402
3
Frame 919, t=0.460 ps, E=0.027798 Ha, T=280163.5 K
O     -2.178248    -0.422047     0.794004
H     17.624158    -3.648892    -4.602295
H     16.949049    11.519635    -8.000157
3
Frame 920, t=0.461 ps, E=0.027792 Ha, T=280163.9 K
O     -2.180623    -0.422505     0.794869
H     17.642620    -3.653727    -4.607271
H     16.968278    11.531730    -8.008913
3
Frame 921, t=0.461 ps, E=0.027787 Ha, T=280164.3 K
O     -2.182998    -0.422962     0.795734
H     17.661083    -3.658561    -4.612247
H     16.987507    11.543826    -8.017668
3
Frame 922, t=0.462 ps, E=0.027781 Ha, T=280164.7 K
O     -2.185372    -0.423420     0.796599
H     17.679546    -3.663396    -4.617222
H     17.006736    11.555921    -8.026423
3
Frame 923, t=0.462 ps, E=0.027776 Ha, T=280165.1 K
O     -2.187747    -0.423877     0.797465
H     17.698008    -3.668230    -4.622198
H     17.025965    11.568016    -8.035179
3
Frame 924, t=0.463 ps, E=0.027770 Ha, T=280165.5 K
O     -2.190122    -0.424335     0.798330
H     17.716471    -3.673064    -4.627173
H     17.045194    11.580112    -8.043934
3
Frame 925, t=0.463 ps, E=0.027765 Ha, T=280165.9 K
O     -2.192496    -0.424792     0.799195
H     17.734934    -3.677899    -4.632149
H     17.064423    11.592207    -8.052690
3
Frame 926, t=0.464 ps, E=0.027759 Ha, T=280166.2 K
O     -2.194871    -0.425249     0.800060
H     17.753397    -3.682733    -4.637125
H     17.083652    11.604303    -8.061445
3
Frame 927, t=0.464 ps, E=0.027754 Ha, T=280166.6 K
O     -2.197246    -0.425707     0.800925
H     17.771860    -3.687567    -4.642100
H     17.102881    11.616398    -8.070201
3
Frame 928, t=0.465 ps, E=0.027748 Ha, T=280167.0 K
O     -2.199621    -0.426164     0.801790
H     17.790322    -3.692401    -4.647076
H     17.122110    11.628493    -8.078956
3
Frame 929, t=0.465 ps, E=0.027743 Ha, T=280167.4 K
O     -2.201995    -0.426622     0.802655
H     17.808785    -3.697236    -4.652052
H     17.141339    11.640589    -8.087712
3
Frame 930, t=0.466 ps, E=0.027737 Ha, T=280167.8 K
O     -2.204370    -0.427079     0.803520
H     17.827248    -3.702070    -4.657028
H     17.160568    11.652684    -8.096468
3
Frame 931, t=0.466 ps, E=0.027732 Ha, T=280168.1 K
O     -2.206745    -0.427537     0.804386
H     17.845711    -3.706904    -4.662003
H     17.179797    11.664779    -8.105223
3
Frame 932, t=0.467 ps, E=0.027727 Ha, T=280168.5 K
O     -2.209120    -0.427994     0.805251
H     17.864174    -3.711738    -4.666979
H     17.199026    11.676875    -8.113979
3
Frame 933, t=0.467 ps, E=0.027721 Ha, T=280168.9 K
O     -2.211494    -0.428452     0.806116
H     17.882637    -3.716572    -4.671955
H     17.218255    11.688970    -8.122734
3
Frame 934, t=0.468 ps, E=0.027716 Ha, T=280169.3 K
O     -2.213869    -0.428909     0.806981
H     17.901100    -3.721406    -4.676931
H     17.237484    11.701065    -8.131490
3
Frame 935, t=0.468 ps, E=0.027711 Ha, T=280169.6 K
O     -2.216244    -0.429367     0.807846
H     17.919563    -3.726241    -4.681906
H     17.256714    11.713160    -8.140245
3
Frame 936, t=0.469 ps, E=0.027705 Ha, T=280170.0 K
O     -2.218619    -0.429824     0.808711
H     17.938026    -3.731075    -4.686882
H     17.275943    11.725256    -8.149001
3
Frame 937, t=0.469 ps, E=0.027700 Ha, T=280170.4 K
O     -2.220993    -0.430282     0.809576
H     17.956489    -3.735909    -4.691858
H     17.295172    11.737351    -8.157756
3
Frame 938, t=0.469 ps, E=0.027695 Ha, T=280170.8 K
O     -2.223368    -0.430739     0.810441
H     17.974952    -3.740743    -4.696834
H     17.314401    11.749446    -8.166512
3
Frame 939, t=0.470 ps, E=0.027689 Ha, T=280171.1 K
O     -2.225743    -0.431197     0.811307
H     17.993415    -3.745577    -4.701810
H     17.333630    11.761541    -8.175267
3
Frame 940, t=0.470 ps, E=0.027684 Ha, T=280171.5 K
O     -2.228118    -0.431654     0.812172
H     18.011878    -3.750411    -4.706785
H     17.352860    11.773636    -8.184023
3
Frame 941, t=0.471 ps, E=0.027679 Ha, T=280171.9 K
O     -2.230493    -0.432112     0.813037
H     18.030342    -3.755245    -4.711761
H     17.372089    11.785732    -8.192778
3
Frame 942, t=0.471 ps, E=0.027673 Ha, T=280172.3 K
O     -2.232867    -0.432569     0.813902
H     18.048805    -3.760079    -4.716737
H     17.391318    11.797827    -8.201534
3
Frame 943, t=0.472 ps, E=0.027668 Ha, T=280172.6 K
O     -2.235242    -0.433027     0.814767
H     18.067268    -3.764913    -4.721713
H     17.410548    11.809922    -8.210289
3
Frame 944, t=0.472 ps, E=0.027663 Ha, T=280173.0 K
O     -2.237617    -0.433484     0.815632
H     18.085731    -3.769747    -4.726689
H     17.429777    11.822017    -8.219045
3
Frame 945, t=0.473 ps, E=0.027658 Ha, T=280173.4 K
O     -2.239992    -0.433942     0.816497
H     18.104194    -3.774580    -4.731665
H     17.449006    11.834112    -8.227800
3
Frame 946, t=0.473 ps, E=0.027652 Ha, T=280173.7 K
O     -2.242366    -0.434399     0.817362
H     18.122658    -3.779414    -4.736641
H     17.468236    11.846207    -8.236556
3
Frame 947, t=0.474 ps, E=0.027647 Ha, T=280174.1 K
O     -2.244741    -0.434857     0.818228
H     18.141121    -3.784248    -4.741617
H     17.487465    11.858302    -8.245312
3
Frame 948, t=0.474 ps, E=0.027642 Ha, T=280174.5 K
O     -2.247116    -0.435314     0.819093
H     18.159584    -3.789082    -4.746593
H     17.506694    11.870397    -8.254067
3
Frame 949, t=0.475 ps, E=0.027637 Ha, T=280174.8 K
O     -2.249491    -0.435772     0.819958
H     18.178048    -3.793916    -4.751569
H     17.525924    11.882492    -8.262823
3
Frame 950, t=0.475 ps, E=0.027631 Ha, T=280175.2 K
O     -2.251866    -0.436229     0.820823
H     18.196511    -3.798750    -4.756544
H     17.545153    11.894587    -8.271578
3
Frame 951, t=0.476 ps, E=0.027626 Ha, T=280175.6 K
O     -2.254240    -0.436687     0.821688
H     18.214975    -3.803584    -4.761520
H     17.564383    11.906682    -8.280334
3
Frame 952, t=0.476 ps, E=0.027621 Ha, T=280175.9 K
O     -2.256615    -0.437144     0.822553
H     18.233438    -3.808417    -4.766496
H     17.583612    11.918777    -8.289089
3
Frame 953, t=0.477 ps, E=0.027616 Ha, T=280176.3 K
O     -2.258990    -0.437601     0.823418
H     18.251901    -3.813251    -4.771472
H     17.602842    11.930872    -8.297845
3
Frame 954, t=0.477 ps, E=0.027611 Ha, T=280176.6 K
O     -2.261365    -0.438059     0.824284
H     18.270365    -3.818085    -4.776448
H     17.622071    11.942967    -8.306600
3
Frame 955, t=0.478 ps, E=0.027606 Ha, T=280177.0 K
O     -2.263740    -0.438516     0.825149
H     18.288828    -3.822919    -4.781424
H     17.641301    11.955062    -8.315356
3
Frame 956, t=0.478 ps, E=0.027601 Ha, T=280177.4 K
O     -2.266114    -0.438974     0.826014
H     18.307292    -3.827752    -4.786401
H     17.660530    11.967157    -8.324111
3
Frame 957, t=0.479 ps, E=0.027595 Ha, T=280177.7 K
O     -2.268489    -0.439431     0.826879
H     18.325756    -3.832586    -4.791377
H     17.679760    11.979252    -8.332867
3
Frame 958, t=0.479 ps, E=0.027590 Ha, T=280178.1 K
O     -2.270864    -0.439889     0.827744
H     18.344219    -3.837420    -4.796353
H     17.698989    11.991347    -8.341623
3
Frame 959, t=0.480 ps, E=0.027585 Ha, T=280178.4 K
O     -2.273239    -0.440346     0.828609
H     18.362683    -3.842253    -4.801329
H     17.718219    12.003442    -8.350378
3
Frame 960, t=0.480 ps, E=0.027580 Ha, T=280178.8 K
O     -2.275614    -0.440804     0.829474
H     18.381146    -3.847087    -4.806305
H     17.737449    12.015537    -8.359134
3
Frame 961, t=0.481 ps, E=0.027575 Ha, T=280179.2 K
O     -2.277989    -0.441261     0.830340
H     18.399610    -3.851920    -4.811281
H     17.756678    12.027632    -8.367889
3
Frame 962, t=0.481 ps, E=0.027570 Ha, T=280179.5 K
O     -2.280363    -0.441719     0.831205
H     18.418074    -3.856754    -4.816257
H     17.775908    12.039727    -8.376645
3
Frame 963, t=0.482 ps, E=0.027565 Ha, T=280179.9 K
O     -2.282738    -0.442176     0.832070
H     18.436537    -3.861588    -4.821233
H     17.795137    12.051822    -8.385400
3
Frame 964, t=0.482 ps, E=0.027560 Ha, T=280180.2 K
O     -2.285113    -0.442634     0.832935
H     18.455001    -3.866421    -4.826209
H     17.814367    12.063917    -8.394156
3
Frame 965, t=0.483 ps, E=0.027555 Ha, T=280180.6 K
O     -2.287488    -0.443091     0.833800
H     18.473465    -3.871255    -4.831185
H     17.833597    12.076011    -8.402912
3
Frame 966, t=0.483 ps, E=0.027550 Ha, T=280180.9 K
O     -2.289863    -0.443549     0.834665
H     18.491929    -3.876088    -4.836162
H     17.852826    12.088106    -8.411667
3
Frame 967, t=0.484 ps, E=0.027545 Ha, T=280181.3 K
O     -2.292238    -0.444006     0.835531
H     18.510392    -3.880922    -4.841138
H     17.872056    12.100201    -8.420423
3
Frame 968, t=0.484 ps, E=0.027540 Ha, T=280181.6 K
O     -2.294612    -0.444464     0.836396
H     18.528856    -3.885755    -4.846114
H     17.891286    12.112296    -8.429178
3
Frame 969, t=0.485 ps, E=0.027535 Ha, T=280182.0 K
O     -2.296987    -0.444921     0.837261
H     18.547320    -3.890589    -4.851090
H     17.910516    12.124391    -8.437934
3
Frame 970, t=0.485 ps, E=0.027530 Ha, T=280182.3 K
O     -2.299362    -0.445379     0.838126
H     18.565784    -3.895422    -4.856066
H     17.929745    12.136485    -8.446690
3
Frame 971, t=0.486 ps, E=0.027525 Ha, T=280182.7 K
O     -2.301737    -0.445836     0.838991
H     18.584248    -3.900256    -4.861042
H     17.948975    12.148580    -8.455445
3
Frame 972, t=0.486 ps, E=0.027520 Ha, T=280183.0 K
O     -2.304112    -0.446294     0.839856
H     18.602712    -3.905089    -4.866019
H     17.968205    12.160675    -8.464201
3
Frame 973, t=0.487 ps, E=0.027515 Ha, T=280183.4 K
O     -2.306487    -0.446751     0.840721
H     18.621176    -3.909922    -4.870995
H     17.987435    12.172770    -8.472956
3
Frame 974, t=0.487 ps, E=0.027510 Ha, T=280183.7 K
O     -2.308861    -0.447209     0.841587
H     18.639640    -3.914756    -4.875971
H     18.006665    12.184864    -8.481712
3
Frame 975, t=0.488 ps, E=0.027505 Ha, T=280184.1 K
O     -2.311236    -0.447666     0.842452
H     18.658104    -3.919589    -4.880947
H     18.025894    12.196959    -8.490468
3
Frame 976, t=0.488 ps, E=0.027500 Ha, T=280184.4 K
O     -2.313611    -0.448124     0.843317
H     18.676568    -3.924422    -4.885924
H     18.045124    12.209054    -8.499223
3
Frame 977, t=0.489 ps, E=0.027495 Ha, T=280184.8 K
O     -2.315986    -0.448581     0.844182
H     18.695032    -3.929256    -4.890900
H     18.064354    12.221149    -8.507979
3
Frame 978, t=0.489 ps, E=0.027490 Ha, T=280185.1 K
O     -2.318361    -0.449039     0.845047
H     18.713496    -3.934089    -4.895876
H     18.083584    12.233243    -8.516734
3
Frame 979, t=0.490 ps, E=0.027485 Ha, T=280185.4 K
O     -2.320736    -0.449496     0.845912
H     18.731960    -3.938922    -4.900853
H     18.102814    12.245338    -8.525490
3
Frame 980, t=0.490 ps, E=0.027481 Ha, T=280185.8 K
O     -2.323111    -0.449954     0.846778
H     18.750424    -3.943755    -4.905829
H     18.122044    12.257433    -8.534246
3
Frame 981, t=0.491 ps, E=0.027476 Ha, T=280186.1 K
O     -2.325486    -0.450411     0.847643
H     18.768888    -3.948589    -4.910805
H     18.141274    12.269527    -8.543001
3
Frame 982, t=0.491 ps, E=0.027471 Ha, T=280186.5 K
O     -2.327860    -0.450869     0.848508
H     18.787352    -3.953422    -4.915782
H     18.160504    12.281622    -8.551757
3
Frame 983, t=0.492 ps, E=0.027466 Ha, T=280186.8 K
O     -2.330235    -0.451326     0.849373
H     18.805816    -3.958255    -4.920758
H     18.179734    12.293716    -8.560512
3
Frame 984, t=0.492 ps, E=0.027461 Ha, T=280187.2 K
O     -2.332610    -0.451784     0.850238
H     18.824281    -3.963088    -4.925734
H     18.198964    12.305811    -8.569268
3
Frame 985, t=0.493 ps, E=0.027456 Ha, T=280187.5 K
O     -2.334985    -0.452241     0.851103
H     18.842745    -3.967922    -4.930711
H     18.218194    12.317906    -8.578024
3
Frame 986, t=0.493 ps, E=0.027451 Ha, T=280187.8 K
O     -2.337360    -0.452699     0.851969
H     18.861209    -3.972755    -4.935687
H     18.237424    12.330000    -8.586779
3
Frame 987, t=0.494 ps, E=0.027447 Ha, T=280188.2 K
O     -2.339735    -0.453156     0.852834
H     18.879673    -3.977588    -4.940663
H     18.256654    12.342095    -8.595535
3
Frame 988, t=0.494 ps, E=0.027442 Ha, T=280188.5 K
O     -2.342110    -0.453614     0.853699
H     18.898138    -3.982421    -4.945640
H     18.275884    12.354189    -8.604290
3
Frame 989, t=0.495 ps, E=0.027437 Ha, T=280188.8 K
O     -2.344485    -0.454071     0.854564
H     18.916602    -3.987254    -4.950616
H     18.295114    12.366284    -8.613046
3
Frame 990, t=0.495 ps, E=0.027432 Ha, T=280189.2 K
O     -2.346860    -0.454529     0.855429
H     18.935066    -3.992087    -4.955593
H     18.314344    12.378378    -8.621802
3
Frame 991, t=0.496 ps, E=0.027427 Ha, T=280189.5 K
O     -2.349234    -0.454986     0.856294
H     18.953531    -3.996920    -4.960569
H     18.333574    12.390473    -8.630557
3
Frame 992, t=0.496 ps, E=0.027423 Ha, T=280189.9 K
O     -2.351609    -0.455444     0.857160
H     18.971995    -4.001753    -4.965546
H     18.352804    12.402567    -8.639313
3
Frame 993, t=0.497 ps, E=0.027418 Ha, T=280190.2 K
O     -2.353984    -0.455901     0.858025
H     18.990460    -4.006586    -4.970522
H     18.372034    12.414662    -8.648069
3
Frame 994, t=0.497 ps, E=0.027413 Ha, T=280190.5 K
O     -2.356359    -0.456359     0.858890
H     19.008924    -4.011419    -4.975499
H     18.391264    12.426756    -8.656824
3
Frame 995, t=0.498 ps, E=0.027408 Ha, T=280190.9 K
O     -2.358734    -0.456816     0.859755
H     19.027388    -4.016252    -4.980475
H     18.410494    12.438851    -8.665580
3
Frame 996, t=0.498 ps, E=0.027404 Ha, T=280191.2 K
O     -2.361109    -0.457274     0.860620
H     19.045853    -4.021085    -4.985452
H     18.429724    12.450945    -8.674336
3
Frame 997, t=0.499 ps, E=0.027399 Ha, T=280191.5 K
O     -2.363484    -0.457731     0.861486
H     19.064317    -4.025918    -4.990428
H     18.448955    12.463040    -8.683091
3
Frame 998, t=0.499 ps, E=0.027394 Ha, T=280191.8 K
O     -2.365859    -0.458189     0.862351
H     19.082782    -4.030751    -4.995405
H     18.468185    12.475134    -8.691847
3
Frame 999, t=0.500 ps, E=0.027389 Ha, T=280192.2 K
O     -2.368234    -0.458646     0.863216
H     19.101246    -4.035584    -5.000381
H     18.487415    12.487229    -8.700602
3
