3
Frame 0, ANI=0.000, GB=-119.886 kcal/mol
O      0.000000     0.000000     0.000000
H      0.757000     0.586000     0.000000
H     -0.757000     0.586000     0.000000
3
Frame 1, ANI=0.000, GB=-119.888 kcal/mol
O      0.014340 -2519.268352    -0.040317
H   8006.043611 19992.413029     0.699017
H  -8006.271211 19994.646230    -0.059099
3
Frame 2, ANI=0.000, GB=-119.888 kcal/mol
O      0.028679 -5038.536826    -0.080635
H  16011.329415 39984.241035     1.398035
H  -16011.784616 39988.707437    -0.118197
3
Frame 3, ANI=0.000, GB=-119.888 kcal/mol
O      0.043019 -7557.805332    -0.120952
H  24016.615017 59976.069286     2.097052
H  -24017.297819 59982.768887    -0.177296
3
Frame 4, ANI=0.000, GB=-119.889 kcal/mol
O      0.057359 -10077.073851    -0.161270
H  32021.900530 79967.897645     2.796069
H  -32022.810932 79976.830446    -0.236394
3
Frame 5, ANI=0.000, GB=-119.889 kcal/mol
O      0.071699 -12596.342378    -0.201587
H  40027.185992 99959.726064     3.495086
H  -40028.323995 99970.892066    -0.295493
3
Frame 6, ANI=0.000, GB=-119.889 kcal/mol
O      0.086038 -15115.610909    -0.241904
H  48032.471422 119951.554523     4.194104
H  -48033.837025 119964.953725    -0.354591
3
Frame 7, ANI=0.000, GB=-119.889 kcal/mol
O      0.100378 -17634.879444    -0.282222
H  56037.756830 139943.383009     4.893121
H  -56039.350034 139959.015411    -0.413690
3
Frame 8, ANI=0.000, GB=-119.889 kcal/mol
O      0.114718 -20154.147982    -0.322539
H  64043.042221 159935.211515     5.592138
H  -64044.863025 159953.077117    -0.472789
3
Frame 9, ANI=0.000, GB=-119.889 kcal/mol
O      0.129058 -22673.416522    -0.362857
H  72048.327599 179927.040037     6.291155
H  -72050.376004 179947.138839    -0.531887
3
Frame 10, ANI=0.000, GB=-119.889 kcal/mol
O      0.143397 -25192.685063    -0.403174
H  80053.612968 199918.868570     6.990173
H  -80055.888974 199941.200572    -0.590986
3
Frame 11, ANI=0.000, GB=-119.889 kcal/mol
O      0.157737 -27711.953605    -0.443491
H  88058.898328 219910.697113     7.689190
H  -88061.401935 219935.262315    -0.650084
3
Frame 12, ANI=0.000, GB=-119.889 kcal/mol
O      0.172077 -30231.222148    -0.483809
H  96064.183682 239902.525664     8.388207
H  -96066.914889 239929.324066    -0.709183
3
Frame 13, ANI=0.000, GB=-119.889 kcal/mol
O      0.186417 -32750.490693    -0.524126
H  104069.469030 259894.354222     9.087224
H  -104072.427838 259923.385824    -0.768281
3
Frame 14, ANI=0.000, GB=-119.889 kcal/mol
O      0.200756 -35269.759238    -0.564444
H  112074.754374 279886.182786     9.786242
H  -112077.940782 279917.447588    -0.827380
3
Frame 15, ANI=0.000, GB=-119.889 kcal/mol
O      0.215096 -37789.027783    -0.604761
H  120080.039713 299878.011355    10.485259
H  -120083.453722 299911.509357    -0.886478
3
Frame 16, ANI=0.000, GB=-119.889 kcal/mol
O      0.229436 -40308.296329    -0.645078
H  128085.325049 319869.839928    11.184276
H  -128088.966658 319905.571130    -0.945577
3
Frame 17, ANI=0.000, GB=-119.889 kcal/mol
O      0.243775 -42827.564876    -0.685396
H  136090.610381 339861.668505    11.883293
H  -136094.479591 339899.632907    -1.004675
3
Frame 18, ANI=0.000, GB=-119.889 kcal/mol
O      0.258115 -45346.833423    -0.725713
H  144095.895711 359853.497085    12.582311
H  -144099.992521 359893.694687    -1.063774
3
Frame 19, ANI=0.000, GB=-119.889 kcal/mol
O      0.272455 -47866.101970    -0.766031
H  152101.181039 379845.325668    13.281328
H  -152105.505449 379887.756470    -1.122873
3
Frame 20, ANI=0.000, GB=-119.889 kcal/mol
O      0.286795 -50385.370518    -0.806348
H  160106.466364 399837.154254    13.980345
H  -160111.018375 399881.818256    -1.181971
3
Frame 21, ANI=0.000, GB=-119.889 kcal/mol
O      0.301134 -52904.639066    -0.846665
H  168111.751687 419828.982842    14.679362
H  -168116.531299 419875.880045    -1.241070
3
Frame 22, ANI=0.000, GB=-119.889 kcal/mol
O      0.315474 -55423.907614    -0.886983
H  176117.037008 439820.811433    15.378380
H  -176122.044220 439869.941835    -1.300168
3
Frame 23, ANI=0.000, GB=-119.889 kcal/mol
O      0.329814 -57943.176163    -0.927300
H  184122.322328 459812.640026    16.077397
H  -184127.557140 459864.003628    -1.359267
3
Frame 24, ANI=0.000, GB=-119.889 kcal/mol
O      0.344154 -60462.444711    -0.967618
H  192127.607646 479804.468620    16.776414
H  -192133.070059 479858.065423    -1.418365
3
Frame 25, ANI=0.000, GB=-119.889 kcal/mol
O      0.358493 -62981.713260    -1.007935
H  200132.892962 499796.297216    17.475431
H  -200138.582976 499852.127219    -1.477464
3
Frame 26, ANI=0.000, GB=-119.889 kcal/mol
O      0.372833 -65500.981810    -1.048252
H  208138.178278 519788.125814    18.174449
H  -208144.095892 519846.189017    -1.536562
3
Frame 27, ANI=0.000, GB=-119.889 kcal/mol
O      0.387173 -68020.250359    -1.088570
H  216143.463592 539779.954413    18.873466
H  -216149.608807 539840.250816    -1.595661
3
Frame 28, ANI=0.000, GB=-119.889 kcal/mol
O      0.401512 -70539.518909    -1.128887
H  224148.748905 559771.783014    19.572483
H  -224155.121720 559834.312616    -1.654759
3
Frame 29, ANI=0.000, GB=-119.889 kcal/mol
O      0.415852 -73058.787458    -1.169205
H  232154.034217 579763.611616    20.271500
H  -232160.634633 579828.374418    -1.713858
3
Frame 30, ANI=0.000, GB=-119.889 kcal/mol
O      0.430192 -75578.056008    -1.209522
H  240159.319528 599755.440218    20.970518
H  -240166.147545 599822.436221    -1.772956
3
Frame 31, ANI=0.000, GB=-119.889 kcal/mol
O      0.444532 -78097.324558    -1.249839
H  248164.604838 619747.268823    21.669535
H  -248171.660455 619816.498025    -1.832055
3
Frame 32, ANI=0.000, GB=-119.889 kcal/mol
O      0.458871 -80616.593108    -1.290157
H  256169.890147 639739.097428    22.368552
H  -256177.173365 639810.559830    -1.891154
3
Frame 33, ANI=0.000, GB=-119.889 kcal/mol
O      0.473211 -83135.861659    -1.330474
H  264175.175456 659730.926034    23.067569
H  -264182.686274 659804.621636    -1.950252
3
Frame 34, ANI=0.000, GB=-119.889 kcal/mol
O      0.487551 -85655.130209    -1.370792
H  272180.460764 679722.754640    23.766587
H  -272188.199183 679798.683443    -2.009351
3
Frame 35, ANI=0.000, GB=-119.889 kcal/mol
O      0.501891 -88174.398759    -1.411109
H  280185.746071 699714.583248    24.465604
H  -280193.712090 699792.745251    -2.068449
3
Frame 36, ANI=0.000, GB=-119.889 kcal/mol
O      0.516230 -90693.667310    -1.451426
H  288191.031377 719706.411857    25.164621
H  -288199.224997 719786.807059    -2.127548
3
Frame 37, ANI=0.000, GB=-119.889 kcal/mol
O      0.530570 -93212.935861    -1.491744
H  296196.316683 739698.240466    25.863639
H  -296204.737904 739780.868869    -2.186646
3
Frame 38, ANI=0.000, GB=-119.889 kcal/mol
O      0.544910 -95732.204411    -1.532061
H  304201.601988 759690.069076    26.562656
H  -304210.250809 759774.930679    -2.245745
3
Frame 39, ANI=0.000, GB=-119.889 kcal/mol
O      0.559250 -98251.472962    -1.572379
H  312206.887293 779681.897687    27.261673
H  -312215.763715 779768.992489    -2.304843
3
Frame 40, ANI=0.000, GB=-119.889 kcal/mol
O      0.573589 -100770.741513    -1.612696
H  320212.172597 799673.726298    27.960690
H  -320221.276619 799763.054301    -2.363942
3
Frame 41, ANI=0.000, GB=-119.889 kcal/mol
O      0.587929 -103290.010064    -1.653013
H  328217.457901 819665.554910    28.659708
H  -328226.789524 819757.116113    -2.423040
3
Frame 42, ANI=0.000, GB=-119.889 kcal/mol
O      0.602269 -105809.278615    -1.693331
H  336222.743204 839657.383522    29.358725
H  -336232.302427 839751.177925    -2.482139
3
Frame 43, ANI=0.000, GB=-119.889 kcal/mol
O      0.616608 -108328.547166    -1.733648
H  344228.028507 859649.212135    30.057742
H  -344237.815331 859745.239738    -2.541238
3
Frame 44, ANI=0.000, GB=-119.889 kcal/mol
O      0.630948 -110847.815717    -1.773966
H  352233.313809 879641.040749    30.756759
H  -352243.328233 879739.301552    -2.600336
3
Frame 45, ANI=0.000, GB=-119.889 kcal/mol
O      0.645288 -113367.084269    -1.814283
H  360238.599111 899632.869363    31.455777
H  -360248.841136 899733.363366    -2.659435
3
Frame 46, ANI=0.000, GB=-119.889 kcal/mol
O      0.659628 -115886.352820    -1.854600
H  368243.884412 919624.697978    32.154794
H  -368254.354038 919727.425181    -2.718533
3
Frame 47, ANI=0.000, GB=-119.889 kcal/mol
O      0.673967 -118405.621371    -1.894918
H  376249.169713 939616.526593    32.853811
H  -376259.866939 939721.486996    -2.777632
3
Frame 48, ANI=0.000, GB=-119.889 kcal/mol
O      0.688307 -120924.889923    -1.935235
H  384254.455014 959608.355208    33.552828
H  -384265.379841 959715.548811    -2.836730
3
Frame 49, ANI=0.000, GB=-119.889 kcal/mol
O      0.702647 -123444.158474    -1.975553
H  392259.740314 979600.183824    34.251846
H  -392270.892741 979709.610627    -2.895829
3
Frame 50, ANI=0.000, GB=-119.889 kcal/mol
O      0.716987 -125963.427026    -2.015870
H  400265.025614 999592.012440    34.950863
H  -400276.405642 999703.672443    -2.954927
3
Frame 51, ANI=0.000, GB=-119.889 kcal/mol
O      0.731326 -128482.695577    -2.056187
H  408270.310914 1019583.841057    35.649880
H  -408281.918542 1019697.734260    -3.014026
3
Frame 52, ANI=0.000, GB=-119.889 kcal/mol
O      0.745666 -131001.964129    -2.096505
H  416275.596214 1039575.669674    36.348897
H  -416287.431442 1039691.796077    -3.073124
3
Frame 53, ANI=0.000, GB=-119.889 kcal/mol
O      0.760006 -133521.232681    -2.136822
H  424280.881513 1059567.498292    37.047915
H  -424292.944342 1059685.857895    -3.132223
3
Frame 54, ANI=0.000, GB=-119.889 kcal/mol
O      0.774345 -136040.501233    -2.177140
H  432286.166811 1079559.326909    37.746932
H  -432298.457241 1079679.919713    -3.191322
3
Frame 55, ANI=0.000, GB=-119.889 kcal/mol
O      0.788685 -138559.769784    -2.217457
H  440291.452110 1099551.155528    38.445949
H  -440303.970140 1099673.981531    -3.250420
3
Frame 56, ANI=0.000, GB=-119.889 kcal/mol
O      0.803025 -141079.038336    -2.257774
H  448296.737408 1119542.984146    39.144966
H  -448309.483039 1119668.043349    -3.309519
3
Frame 57, ANI=0.000, GB=-119.889 kcal/mol
O      0.817365 -143598.306888    -2.298092
H  456302.022706 1139534.812765    39.843984
H  -456314.995938 1139662.105168    -3.368617
3
Frame 58, ANI=0.000, GB=-119.889 kcal/mol
O      0.831704 -146117.575440    -2.338409
H  464307.308004 1159526.641384    40.543001
H  -464320.508836 1159656.166987    -3.427716
3
Frame 59, ANI=0.000, GB=-119.889 kcal/mol
O      0.846044 -148636.843992    -2.378727
H  472312.593301 1179518.470003    41.242018
H  -472326.021734 1179650.228806    -3.486814
3
Frame 60, ANI=0.000, GB=-119.889 kcal/mol
O      0.860384 -151156.112544    -2.419044
H  480317.878599 1199510.298623    41.941035
H  -480331.534632 1199644.290626    -3.545913
3
Frame 61, ANI=0.000, GB=-119.889 kcal/mol
O      0.874724 -153675.381096    -2.459361
H  488323.163896 1219502.127243    42.640053
H  -488337.047529 1219638.352446    -3.605011
3
Frame 62, ANI=0.000, GB=-119.889 kcal/mol
O      0.889063 -156194.649648    -2.499679
H  496328.449193 1239493.955863    43.339070
H  -496342.560427 1239632.414266    -3.664110
3
Frame 63, ANI=0.000, GB=-119.889 kcal/mol
O      0.903403 -158713.918200    -2.539996
H  504333.734489 1259485.784483    44.038087
H  -504348.073324 1259626.476087    -3.723208
3
Frame 64, ANI=0.000, GB=-119.889 kcal/mol
O      0.917743 -161233.186752    -2.580314
H  512339.019786 1279477.613104    44.737104
H  -512353.586221 1279620.537907    -3.782307
3
Frame 65, ANI=0.000, GB=-119.889 kcal/mol
O      0.932083 -163752.455304    -2.620631
H  520344.305082 1299469.441725    45.436122
H  -520359.099118 1299614.599728    -3.841405
3
Frame 66, ANI=0.000, GB=-119.889 kcal/mol
O      0.946422 -166271.723856    -2.660948
H  528349.590378 1319461.270346    46.135139
H  -528364.612014 1319608.661549    -3.900504
3
Frame 67, ANI=0.000, GB=-119.889 kcal/mol
O      0.960762 -168790.992408    -2.701266
H  536354.875674 1339453.098967    46.834156
H  -536370.124911 1339602.723371    -3.959603
3
Frame 68, ANI=0.000, GB=-119.889 kcal/mol
O      0.975102 -171310.260961    -2.741583
H  544360.160969 1359444.927589    47.533173
H  -544375.637807 1359596.785192    -4.018701
3
Frame 69, ANI=0.000, GB=-119.889 kcal/mol
O      0.989441 -173829.529513    -2.781901
H  552365.446265 1379436.756211    48.232191
H  -552381.150703 1379590.847014    -4.077800
3
Frame 70, ANI=0.000, GB=-119.889 kcal/mol
O      1.003781 -176348.798065    -2.822218
H  560370.731560 1399428.584833    48.931208
H  -560386.663599 1399584.908836    -4.136898
3
Frame 71, ANI=0.000, GB=-119.889 kcal/mol
O      1.018121 -178868.066617    -2.862535
H  568376.016855 1419420.413455    49.630225
H  -568392.176495 1419578.970658    -4.195997
3
Frame 72, ANI=0.000, GB=-119.889 kcal/mol
O      1.032461 -181387.335170    -2.902853
H  576381.302150 1439412.242077    50.329242
H  -576397.689390 1439573.032481    -4.255095
3
Frame 73, ANI=0.000, GB=-119.889 kcal/mol
O      1.046800 -183906.603722    -2.943170
H  584386.587445 1459404.070700    51.028260
H  -584403.202285 1459567.094303    -4.314194
3
Frame 74, ANI=0.000, GB=-119.889 kcal/mol
O      1.061140 -186425.872274    -2.983487
H  592391.872740 1479395.899323    51.727277
H  -592408.715181 1479561.156126    -4.373292
3
Frame 75, ANI=0.000, GB=-119.889 kcal/mol
O      1.075480 -188945.140827    -3.023805
H  600397.158035 1499387.727946    52.426294
H  -600414.228076 1499555.217949    -4.432391
3
Frame 76, ANI=0.000, GB=-119.889 kcal/mol
O      1.089820 -191464.409379    -3.064122
H  608402.443329 1519379.556569    53.125311
H  -608419.740971 1519549.279772    -4.491489
3
Frame 77, ANI=0.000, GB=-119.889 kcal/mol
O      1.104159 -193983.677931    -3.104440
H  616407.728623 1539371.385192    53.824329
H  -616425.253866 1539543.341595    -4.550588
3
Frame 78, ANI=0.000, GB=-119.889 kcal/mol
O      1.118499 -196502.946484    -3.144757
H  624413.013917 1559363.213815    54.523346
H  -624430.766760 1559537.403419    -4.609687
3
Frame 79, ANI=0.000, GB=-119.889 kcal/mol
O      1.132839 -199022.215036    -3.185074
H  632418.299211 1579355.042439    55.222363
H  -632436.279655 1579531.465242    -4.668785
3
Frame 80, ANI=0.000, GB=-119.889 kcal/mol
O      1.147178 -201541.483589    -3.225392
H  640423.584505 1599346.871063    55.921380
H  -640441.792549 1599525.527066    -4.727884
3
Frame 81, ANI=0.000, GB=-119.889 kcal/mol
O      1.161518 -204060.752141    -3.265709
H  648428.869799 1619338.699687    56.620398
H  -648447.305443 1619519.588890    -4.786982
3
Frame 82, ANI=0.000, GB=-119.889 kcal/mol
O      1.175858 -206580.020694    -3.306027
H  656434.155093 1639330.528311    57.319415
H  -656452.818338 1639513.650714    -4.846081
3
Frame 83, ANI=0.000, GB=-119.889 kcal/mol
O      1.190198 -209099.289246    -3.346344
H  664439.440386 1659322.356935    58.018432
H  -664458.331232 1659507.712538    -4.905179
3
Frame 84, ANI=0.000, GB=-119.889 kcal/mol
O      1.204537 -211618.557799    -3.386661
H  672444.725679 1679314.185559    58.717449
H  -672463.844126 1679501.774363    -4.964278
3
Frame 85, ANI=0.000, GB=-119.889 kcal/mol
O      1.218877 -214137.826352    -3.426979
H  680450.010973 1699306.014184    59.416467
H  -680469.357019 1699495.836187    -5.023376
3
Frame 86, ANI=0.000, GB=-119.889 kcal/mol
O      1.233217 -216657.094904    -3.467296
H  688455.296266 1719297.842808    60.115484
H  -688474.869913 1719489.898012    -5.082475
3
Frame 87, ANI=0.000, GB=-119.889 kcal/mol
O      1.247557 -219176.363457    -3.507614
H  696460.581559 1739289.671433    60.814501
H  -696480.382807 1739483.959837    -5.141573
3
Frame 88, ANI=0.000, GB=-119.889 kcal/mol
O      1.261896 -221695.632009    -3.547931
H  704465.866852 1759281.500058    61.513518
H  -704485.895700 1759478.021662    -5.200672
3
Frame 89, ANI=0.000, GB=-119.889 kcal/mol
O      1.276236 -224214.900562    -3.588248
H  712471.152145 1779273.328683    62.212536
H  -712491.408594 1779472.083487    -5.259770
3
Frame 90, ANI=0.000, GB=-119.889 kcal/mol
O      1.290576 -226734.169115    -3.628566
H  720476.437437 1799265.157308    62.911553
H  -720496.921487 1799466.145312    -5.318869
3
Frame 91, ANI=0.000, GB=-119.889 kcal/mol
O      1.304916 -229253.437667    -3.668883
H  728481.722730 1819256.985933    63.610570
H  -728502.434380 1819460.207137    -5.377968
3
Frame 92, ANI=0.000, GB=-119.889 kcal/mol
O      1.319255 -231772.706220    -3.709201
H  736487.008023 1839248.814559    64.309588
H  -736507.947273 1839454.268962    -5.437066
3
Frame 93, ANI=0.000, GB=-119.889 kcal/mol
O      1.333595 -234291.974773    -3.749518
H  744492.293315 1859240.643184    65.008605
H  -744513.460166 1859448.330788    -5.496165
3
Frame 94, ANI=0.000, GB=-119.889 kcal/mol
O      1.347935 -236811.243325    -3.789835
H  752497.578607 1879232.471810    65.707622
H  -752518.973059 1879442.392613    -5.555263
3
Frame 95, ANI=0.000, GB=-119.889 kcal/mol
O      1.362274 -239330.511878    -3.830153
H  760502.863900 1899224.300436    66.406639
H  -760524.485952 1899436.454439    -5.614362
3
Frame 96, ANI=0.000, GB=-119.889 kcal/mol
O      1.376614 -241849.780431    -3.870470
H  768508.149192 1919216.129061    67.105657
H  -768529.998845 1919430.516265    -5.673460
3
Frame 97, ANI=0.000, GB=-119.889 kcal/mol
O      1.390954 -244369.048984    -3.910788
H  776513.434484 1939207.957687    67.804674
H  -776535.511737 1939424.578091    -5.732559
3
Frame 98, ANI=0.000, GB=-119.889 kcal/mol
O      1.405294 -246888.317536    -3.951105
H  784518.719776 1959199.786313    68.503691
H  -784541.024630 1959418.639917    -5.791657
3
Frame 99, ANI=0.000, GB=-119.889 kcal/mol
O      1.419633 -249407.586089    -3.991422
H  792524.005068 1979191.614939    69.202708
H  -792546.537522 1979412.701743    -5.850756
3
Frame 100, ANI=0.000, GB=-119.889 kcal/mol
O      1.433973 -251926.854642    -4.031740
H  800529.290360 1999183.443566    69.901726
H  -800552.050415 1999406.763569    -5.909854
3
Frame 101, ANI=0.000, GB=-119.889 kcal/mol
O      1.448313 -254446.123195    -4.072057
H  808534.575651 2019175.272192    70.600743
H  -808557.563307 2019400.825396    -5.968953
3
Frame 102, ANI=0.000, GB=-119.889 kcal/mol
O      1.462653 -256965.391748    -4.112375
H  816539.860943 2039167.100818    71.299760
H  -816563.076199 2039394.887222    -6.028052
3
Frame 103, ANI=0.000, GB=-119.889 kcal/mol
O      1.476992 -259484.660300    -4.152692
H  824545.146235 2059158.929445    71.998777
H  -824568.589091 2059388.949049    -6.087150
3
Frame 104, ANI=0.000, GB=-119.889 kcal/mol
O      1.491332 -262003.928853    -4.193009
H  832550.431526 2079150.758072    72.697795
H  -832574.101983 2079383.010875    -6.146249
3
Frame 105, ANI=0.000, GB=-119.889 kcal/mol
O      1.505672 -264523.197406    -4.233327
H  840555.716818 2099142.586698    73.396812
H  -840579.614875 2099377.072702    -6.205347
3
Frame 106, ANI=0.000, GB=-119.889 kcal/mol
O      1.520011 -267042.465959    -4.273644
H  848561.002109 2119134.415325    74.095829
H  -848585.127767 2119371.134529    -6.264446
3
Frame 107, ANI=0.000, GB=-119.889 kcal/mol
O      1.534351 -269561.734512    -4.313962
H  856566.287400 2139126.243952    74.794846
H  -856590.640659 2139365.196356    -6.323544
3
Frame 108, ANI=0.000, GB=-119.889 kcal/mol
O      1.548691 -272081.003065    -4.354279
H  864571.572692 2159118.072579    75.493864
H  -864596.153551 2159359.258183    -6.382643
3
Frame 109, ANI=0.000, GB=-119.889 kcal/mol
O      1.563031 -274600.271618    -4.394596
H  872576.857983 2179109.901206    76.192881
H  -872601.666442 2179353.320010    -6.441741
3
Frame 110, ANI=0.000, GB=-119.889 kcal/mol
O      1.577370 -277119.540170    -4.434914
H  880582.143274 2199101.729833    76.891898
H  -880607.179334 2199347.381837    -6.500840
3
Frame 111, ANI=0.000, GB=-119.889 kcal/mol
O      1.591710 -279638.808723    -4.475231
H  888587.428565 2219093.558460    77.590915
H  -888612.692226 2219341.443664    -6.559938
3
Frame 112, ANI=0.000, GB=-119.889 kcal/mol
O      1.606050 -282158.077276    -4.515549
H  896592.713856 2239085.387088    78.289933
H  -896618.205117 2239335.505491    -6.619037
3
Frame 113, ANI=0.000, GB=-119.889 kcal/mol
O      1.620390 -284677.345829    -4.555866
H  904597.999147 2259077.215715    78.988950
H  -904623.718009 2259329.567319    -6.678135
3
Frame 114, ANI=0.000, GB=-119.889 kcal/mol
O      1.634729 -287196.614382    -4.596183
H  912603.284438 2279069.044342    79.687967
H  -912629.230900 2279323.629146    -6.737234
3
Frame 115, ANI=0.000, GB=-119.889 kcal/mol
O      1.649069 -289715.882935    -4.636501
H  920608.569728 2299060.872970    80.386984
H  -920634.743791 2299317.690974    -6.796333
3
Frame 116, ANI=0.000, GB=-119.889 kcal/mol
O      1.663409 -292235.151488    -4.676818
H  928613.855019 2319052.701597    81.086002
H  -928640.256682 2319311.752801    -6.855431
3
Frame 117, ANI=0.000, GB=-119.889 kcal/mol
O      1.677748 -294754.420041    -4.717136
H  936619.140310 2339044.530225    81.785019
H  -936645.769574 2339305.814629    -6.914530
3
Frame 118, ANI=0.000, GB=-119.889 kcal/mol
O      1.692088 -297273.688594    -4.757453
H  944624.425600 2359036.358853    82.484036
H  -944651.282465 2359299.876457    -6.973628
3
Frame 119, ANI=0.000, GB=-119.889 kcal/mol
O      1.706428 -299792.957147    -4.797770
H  952629.710891 2379028.187481    83.183053
H  -952656.795356 2379293.938285    -7.032727
3
Frame 120, ANI=0.000, GB=-119.889 kcal/mol
O      1.720768 -302312.225700    -4.838088
H  960634.996181 2399020.016109    83.882071
H  -960662.308247 2399288.000112    -7.091825
3
Frame 121, ANI=0.000, GB=-119.889 kcal/mol
O      1.735107 -304831.494253    -4.878405
H  968640.281472 2419011.844736    84.581088
H  -968667.821138 2419282.061940    -7.150924
3
Frame 122, ANI=0.000, GB=-119.889 kcal/mol
O      1.749447 -307350.762806    -4.918723
H  976645.566762 2439003.673364    85.280105
H  -976673.334029 2439276.123768    -7.210022
3
Frame 123, ANI=0.000, GB=-119.889 kcal/mol
O      1.763787 -309870.031359    -4.959040
H  984650.852052 2458995.501993    85.979122
H  -984678.846920 2459270.185596    -7.269121
3
Frame 124, ANI=0.000, GB=-119.889 kcal/mol
O      1.778127 -312389.299912    -4.999357
H  992656.137343 2478987.330621    86.678140
H  -992684.359810 2479264.247425    -7.328219
3
Frame 125, ANI=0.000, GB=-119.889 kcal/mol
O      1.792466 -314908.568465    -5.039675
H  1000661.422633 2498979.159249    87.377157
H  -1000689.872701 2499258.309253    -7.387318
3
Frame 126, ANI=0.000, GB=-119.889 kcal/mol
O      1.806806 -317427.837018    -5.079992
H  1008666.707923 2518970.987877    88.076174
H  -1008695.385592 2519252.371081    -7.446417
3
Frame 127, ANI=0.000, GB=-119.889 kcal/mol
O      1.821146 -319947.105571    -5.120310
H  1016671.993213 2538962.816505    88.775191
H  -1016700.898482 2539246.432909    -7.505515
3
Frame 128, ANI=0.000, GB=-119.889 kcal/mol
O      1.835486 -322466.374124    -5.160627
H  1024677.278503 2558954.645134    89.474209
H  -1024706.411373 2559240.494738    -7.564614
3
Frame 129, ANI=0.000, GB=-119.889 kcal/mol
O      1.849825 -324985.642677    -5.200944
H  1032682.563793 2578946.473762    90.173226
H  -1032711.924264 2579234.556566    -7.623712
3
Frame 130, ANI=0.000, GB=-119.889 kcal/mol
O      1.864165 -327504.911230    -5.241262
H  1040687.849083 2598938.302391    90.872243
H  -1040717.437154 2599228.618395    -7.682811
3
Frame 131, ANI=0.000, GB=-119.889 kcal/mol
O      1.878505 -330024.179784    -5.281579
H  1048693.134373 2618930.131019    91.571260
H  -1048722.950045 2619222.680223    -7.741909
3
Frame 132, ANI=0.000, GB=-119.889 kcal/mol
O      1.892844 -332543.448337    -5.321897
H  1056698.419663 2638921.959648    92.270278
H  -1056728.462935 2639216.742052    -7.801008
3
Frame 133, ANI=0.000, GB=-119.889 kcal/mol
O      1.907184 -335062.716890    -5.362214
H  1064703.704953 2658913.788277    92.969295
H  -1064733.975825 2659210.803881    -7.860106
3
Frame 134, ANI=0.000, GB=-119.889 kcal/mol
O      1.921524 -337581.985443    -5.402531
H  1072708.990242 2678905.616905    93.668312
H  -1072739.488716 2679204.865709    -7.919205
3
Frame 135, ANI=0.000, GB=-119.889 kcal/mol
O      1.935864 -340101.253996    -5.442849
H  1080714.275532 2698897.445534    94.367329
H  -1080745.001606 2699198.927538    -7.978303
3
Frame 136, ANI=0.000, GB=-119.889 kcal/mol
O      1.950203 -342620.522549    -5.483166
H  1088719.560822 2718889.274163    95.066347
H  -1088750.514496 2719192.989367    -8.037402
3
Frame 137, ANI=0.000, GB=-119.889 kcal/mol
O      1.964543 -345139.791102    -5.523484
H  1096724.846111 2738881.102792    95.765364
H  -1096756.027386 2739187.051196    -8.096500
3
Frame 138, ANI=0.000, GB=-119.889 kcal/mol
O      1.978883 -347659.059655    -5.563801
H  1104730.131401 2758872.931421    96.464381
H  -1104761.540276 2759181.113025    -8.155599
3
Frame 139, ANI=0.000, GB=-119.889 kcal/mol
O      1.993223 -350178.328208    -5.604118
H  1112735.416690 2778864.760050    97.163398
H  -1112767.053166 2779175.174854    -8.214698
3
Frame 140, ANI=0.000, GB=-119.889 kcal/mol
O      2.007562 -352697.596762    -5.644436
H  1120740.701980 2798856.588679    97.862416
H  -1120772.566057 2799169.236683    -8.273796
3
Frame 141, ANI=0.000, GB=-119.889 kcal/mol
O      2.021902 -355216.865315    -5.684753
H  1128745.987269 2818848.417308    98.561433
H  -1128778.078947 2819163.298512    -8.332895
3
Frame 142, ANI=0.000, GB=-119.889 kcal/mol
O      2.036242 -357736.133868    -5.725071
H  1136751.272559 2838840.245937    99.260450
H  -1136783.591837 2839157.360341    -8.391993
3
Frame 143, ANI=0.000, GB=-119.889 kcal/mol
O      2.050581 -360255.402421    -5.765388
H  1144756.557848 2858832.074566    99.959467
H  -1144789.104726 2859151.422170    -8.451092
3
Frame 144, ANI=0.000, GB=-119.889 kcal/mol
O      2.064921 -362774.670974    -5.805705
H  1152761.843138 2878823.903196   100.658485
H  -1152794.617616 2879145.484000    -8.510190
3
Frame 145, ANI=0.000, GB=-119.889 kcal/mol
O      2.079261 -365293.939527    -5.846023
H  1160767.128427 2898815.731825   101.357502
H  -1160800.130506 2899139.545829    -8.569289
3
Frame 146, ANI=0.000, GB=-119.889 kcal/mol
O      2.093601 -367813.208081    -5.886340
H  1168772.413716 2918807.560454   102.056519
H  -1168805.643396 2919133.607658    -8.628387
3
Frame 147, ANI=0.000, GB=-119.889 kcal/mol
O      2.107940 -370332.476634    -5.926658
H  1176777.699005 2938799.389084   102.755536
H  -1176811.156286 2939127.669488    -8.687486
3
Frame 148, ANI=0.000, GB=-119.889 kcal/mol
O      2.122280 -372851.745187    -5.966975
H  1184782.984295 2958791.217713   103.454554
H  -1184816.669175 2959121.731317    -8.746584
3
Frame 149, ANI=0.000, GB=-119.889 kcal/mol
O      2.136620 -375371.013740    -6.007292
H  1192788.269584 2978783.046342   104.153571
H  -1192822.182065 2979115.793147    -8.805683
3
Frame 150, ANI=0.000, GB=-119.889 kcal/mol
O      2.150960 -377890.282293    -6.047610
H  1200793.554873 2998774.874972   104.852588
H  -1200827.694955 2999109.854976    -8.864782
3
Frame 151, ANI=0.000, GB=-119.889 kcal/mol
O      2.165299 -380409.550847    -6.087927
H  1208798.840162 3018766.703601   105.551606
H  -1208833.207844 3019103.916806    -8.923880
3
Frame 152, ANI=0.000, GB=-119.889 kcal/mol
O      2.179639 -382928.819400    -6.128245
H  1216804.125451 3038758.532231   106.250623
H  -1216838.720734 3039097.978635    -8.982979
3
Frame 153, ANI=0.000, GB=-119.889 kcal/mol
O      2.193979 -385448.087953    -6.168562
H  1224809.410740 3058750.360861   106.949640
H  -1224844.233624 3059092.040465    -9.042077
3
Frame 154, ANI=0.000, GB=-119.889 kcal/mol
O      2.208319 -387967.356506    -6.208879
H  1232814.696029 3078742.189490   107.648657
H  -1232849.746513 3079086.102295    -9.101176
3
Frame 155, ANI=0.000, GB=-119.889 kcal/mol
O      2.222658 -390486.625059    -6.249197
H  1240819.981318 3098734.018120   108.347675
H  -1240855.259403 3099080.164124    -9.160274
3
Frame 156, ANI=0.000, GB=-119.889 kcal/mol
O      2.236998 -393005.893613    -6.289514
H  1248825.266607 3118725.846750   109.046692
H  -1248860.772292 3119074.225954    -9.219373
3
Frame 157, ANI=0.000, GB=-119.889 kcal/mol
O      2.251338 -395525.162166    -6.329832
H  1256830.551896 3138717.675380   109.745709
H  -1256866.285182 3139068.287784    -9.278471
3
Frame 158, ANI=0.000, GB=-119.889 kcal/mol
O      2.265677 -398044.430719    -6.370149
H  1264835.837185 3158709.504010   110.444726
H  -1264871.798071 3159062.349614    -9.337570
3
Frame 159, ANI=0.000, GB=-119.889 kcal/mol
O      2.280017 -400563.699272    -6.410466
H  1272841.122473 3178701.332639   111.143744
H  -1272877.310960 3179056.411444    -9.396668
3
Frame 160, ANI=0.000, GB=-119.889 kcal/mol
O      2.294357 -403082.967826    -6.450784
H  1280846.407762 3198693.161269   111.842761
H  -1280882.823850 3199050.473274    -9.455767
3
Frame 161, ANI=0.000, GB=-119.889 kcal/mol
O      2.308697 -405602.236379    -6.491101
H  1288851.693051 3218684.989899   112.541778
H  -1288888.336739 3219044.535104    -9.514865
3
Frame 162, ANI=0.000, GB=-119.889 kcal/mol
O      2.323036 -408121.504932    -6.531419
H  1296856.978340 3238676.818529   113.240795
H  -1296893.849628 3239038.596934    -9.573964
3
Frame 163, ANI=0.000, GB=-119.889 kcal/mol
O      2.337376 -410640.773485    -6.571736
H  1304862.263628 3258668.647159   113.939813
H  -1304899.362517 3259032.658764    -9.633063
3
Frame 164, ANI=0.000, GB=-119.889 kcal/mol
O      2.351716 -413160.042039    -6.612053
H  1312867.548917 3278660.475789   114.638830
H  -1312904.875407 3279026.720594    -9.692161
3
Frame 165, ANI=0.000, GB=-119.889 kcal/mol
O      2.366056 -415679.310592    -6.652371
H  1320872.834206 3298652.304420   115.337847
H  -1320910.388296 3299020.782424    -9.751260
3
Frame 166, ANI=0.000, GB=-119.889 kcal/mol
O      2.380395 -418198.579145    -6.692688
H  1328878.119494 3318644.133050   116.036864
H  -1328915.901185 3319014.844254    -9.810358
3
Frame 167, ANI=0.000, GB=-119.889 kcal/mol
O      2.394735 -420717.847699    -6.733006
H  1336883.404783 3338635.961680   116.735882
H  -1336921.414074 3339008.906084    -9.869457
3
Frame 168, ANI=0.000, GB=-119.889 kcal/mol
O      2.409075 -423237.116252    -6.773323
H  1344888.690071 3358627.790310   117.434899
H  -1344926.926963 3359002.967914    -9.928555
3
Frame 169, ANI=0.000, GB=-119.889 kcal/mol
O      2.423414 -425756.384805    -6.813640
H  1352893.975360 3378619.618940   118.133916
H  -1352932.439852 3378997.029745    -9.987654
3
Frame 170, ANI=0.000, GB=-119.889 kcal/mol
O      2.437754 -428275.653359    -6.853958
H  1360899.260648 3398611.447571   118.832933
H  -1360937.952741 3398991.091575   -10.046752
3
Frame 171, ANI=0.000, GB=-119.889 kcal/mol
O      2.452094 -430794.921912    -6.894275
H  1368904.545937 3418603.276201   119.531951
H  -1368943.465630 3418985.153405   -10.105851
3
Frame 172, ANI=0.000, GB=-119.889 kcal/mol
O      2.466434 -433314.190465    -6.934593
H  1376909.831225 3438595.104831   120.230968
H  -1376948.978519 3438979.215236   -10.164949
3
Frame 173, ANI=0.000, GB=-119.889 kcal/mol
O      2.480773 -435833.459018    -6.974910
H  1384915.116514 3458586.933462   120.929985
H  -1384954.491408 3458973.277066   -10.224048
3
Frame 174, ANI=0.000, GB=-119.889 kcal/mol
O      2.495113 -438352.727572    -7.015227
H  1392920.401802 3478578.762092   121.629002
H  -1392960.004297 3478967.338896   -10.283147
3
Frame 175, ANI=0.000, GB=-119.889 kcal/mol
O      2.509453 -440871.996125    -7.055545
H  1400925.687090 3498570.590723   122.328020
H  -1400965.517186 3498961.400727   -10.342245
3
Frame 176, ANI=0.000, GB=-119.889 kcal/mol
O      2.523793 -443391.264678    -7.095862
H  1408930.972379 3518562.419353   123.027037
H  -1408971.030075 3518955.462557   -10.401344
3
Frame 177, ANI=0.000, GB=-119.889 kcal/mol
O      2.538132 -445910.533232    -7.136180
H  1416936.257667 3538554.247983   123.726054
H  -1416976.542964 3538949.524388   -10.460442
3
Frame 178, ANI=0.000, GB=-119.889 kcal/mol
O      2.552472 -448429.801785    -7.176497
H  1424941.542955 3558546.076614   124.425071
H  -1424982.055852 3558943.586218   -10.519541
3
Frame 179, ANI=0.000, GB=-119.889 kcal/mol
O      2.566812 -450949.070338    -7.216814
H  1432946.828243 3578537.905245   125.124089
H  -1432987.568741 3578937.648049   -10.578639
3
Frame 180, ANI=0.000, GB=-119.889 kcal/mol
O      2.581152 -453468.338892    -7.257132
H  1440952.113532 3598529.733875   125.823106
H  -1440993.081630 3598931.709880   -10.637738
3
Frame 181, ANI=0.000, GB=-119.889 kcal/mol
O      2.595491 -455987.607445    -7.297449
H  1448957.398820 3618521.562506   126.522123
H  -1448998.594519 3618925.771710   -10.696836
3
Frame 182, ANI=0.000, GB=-119.889 kcal/mol
O      2.609831 -458506.875998    -7.337767
H  1456962.684108 3638513.391137   127.221140
H  -1457004.107407 3638919.833541   -10.755935
3
Frame 183, ANI=0.000, GB=-119.889 kcal/mol
O      2.624171 -461026.144552    -7.378084
H  1464967.969396 3658505.219767   127.920158
H  -1465009.620296 3658913.895372   -10.815033
3
Frame 184, ANI=0.000, GB=-119.889 kcal/mol
O      2.638510 -463545.413105    -7.418401
H  1472973.254684 3678497.048398   128.619175
H  -1473015.133185 3678907.957202   -10.874132
3
Frame 185, ANI=0.000, GB=-119.889 kcal/mol
O      2.652850 -466064.681658    -7.458719
H  1480978.539972 3698488.877029   129.318192
H  -1481020.646073 3698902.019033   -10.933230
3
Frame 186, ANI=0.000, GB=-119.889 kcal/mol
O      2.667190 -468583.950212    -7.499036
H  1488983.825260 3718480.705659   130.017209
H  -1489026.158962 3718896.080864   -10.992329
3
Frame 187, ANI=0.000, GB=-119.889 kcal/mol
O      2.681530 -471103.218765    -7.539354
H  1496989.110548 3738472.534290   130.716227
H  -1497031.671851 3738890.142695   -11.051428
3
Frame 188, ANI=0.000, GB=-119.889 kcal/mol
O      2.695869 -473622.487319    -7.579671
H  1504994.395836 3758464.362921   131.415244
H  -1505037.184739 3758884.204526   -11.110526
3
Frame 189, ANI=0.000, GB=-119.889 kcal/mol
O      2.710209 -476141.755872    -7.619988
H  1512999.681124 3778456.191552   132.114261
H  -1513042.697628 3778878.266356   -11.169625
3
Frame 190, ANI=0.000, GB=-119.889 kcal/mol
O      2.724549 -478661.024425    -7.660306
H  1521004.966412 3798448.020183   132.813278
H  -1521048.210516 3798872.328187   -11.228723
3
Frame 191, ANI=0.000, GB=-119.889 kcal/mol
O      2.738889 -481180.292979    -7.700623
H  1529010.251700 3818439.848814   133.512296
H  -1529053.723405 3818866.390018   -11.287822
3
Frame 192, ANI=0.000, GB=-119.889 kcal/mol
O      2.753228 -483699.561532    -7.740941
H  1537015.536988 3838431.677445   134.211313
H  -1537059.236293 3838860.451849   -11.346920
3
Frame 193, ANI=0.000, GB=-119.889 kcal/mol
O      2.767568 -486218.830086    -7.781258
H  1545020.822276 3858423.506076   134.910330
H  -1545064.749182 3858854.513680   -11.406019
3
Frame 194, ANI=0.000, GB=-119.889 kcal/mol
O      2.781908 -488738.098639    -7.821575
H  1553026.107564 3878415.334707   135.609347
H  -1553070.262070 3878848.575511   -11.465117
3
Frame 195, ANI=0.000, GB=-119.889 kcal/mol
O      2.796247 -491257.367192    -7.861893
H  1561031.392852 3898407.163338   136.308365
H  -1561075.774958 3898842.637342   -11.524216
3
Frame 196, ANI=0.000, GB=-119.889 kcal/mol
O      2.810587 -493776.635746    -7.902210
H  1569036.678140 3918398.991969   137.007382
H  -1569081.287847 3918836.699173   -11.583314
3
Frame 197, ANI=0.000, GB=-119.889 kcal/mol
O      2.824927 -496295.904299    -7.942528
H  1577041.963428 3938390.820600   137.706399
H  -1577086.800735 3938830.761004   -11.642413
3
Frame 198, ANI=0.000, GB=-119.889 kcal/mol
O      2.839267 -498815.172852    -7.982845
H  1585047.248715 3958382.649231   138.405416
H  -1585092.313624 3958824.822836   -11.701511
3
Frame 199, ANI=0.000, GB=-119.889 kcal/mol
O      2.853606 -501334.441406    -8.023162
H  1593052.534003 3978374.477862   139.104434
H  -1593097.826512 3978818.884667   -11.760610
3
Frame 200, ANI=0.000, GB=-119.889 kcal/mol
O      2.867946 -503853.709959    -8.063480
H  1601057.819291 3998366.306493   139.803451
H  -1601103.339400 3998812.946498   -11.819709
3
Frame 201, ANI=0.000, GB=-119.889 kcal/mol
O      2.882286 -506372.978513    -8.103797
H  1609063.104579 4018358.135124   140.502468
H  -1609108.852288 4018807.008329   -11.878807
3
Frame 202, ANI=0.000, GB=-119.889 kcal/mol
O      2.896626 -508892.247066    -8.144115
H  1617068.389866 4038349.963756   141.201485
H  -1617114.365177 4038801.070160   -11.937906
3
Frame 203, ANI=0.000, GB=-119.889 kcal/mol
O      2.910965 -511411.515620    -8.184432
H  1625073.675154 4058341.792387   141.900503
H  -1625119.878065 4058795.131991   -11.997004
3
Frame 204, ANI=0.000, GB=-119.889 kcal/mol
O      2.925305 -513930.784173    -8.224749
H  1633078.960442 4078333.621018   142.599520
H  -1633125.390953 4078789.193823   -12.056103
3
Frame 205, ANI=0.000, GB=-119.889 kcal/mol
O      2.939645 -516450.052726    -8.265067
H  1641084.245730 4098325.449649   143.298537
H  -1641130.903841 4098783.255654   -12.115201
3
Frame 206, ANI=0.000, GB=-119.889 kcal/mol
O      2.953985 -518969.321280    -8.305384
H  1649089.531017 4118317.278281   143.997554
H  -1649136.416730 4118777.317485   -12.174300
3
Frame 207, ANI=0.000, GB=-119.889 kcal/mol
O      2.968324 -521488.589833    -8.345702
H  1657094.816305 4138309.106912   144.696572
H  -1657141.929618 4138771.379317   -12.233398
3
Frame 208, ANI=0.000, GB=-119.889 kcal/mol
O      2.982664 -524007.858387    -8.386019
H  1665100.101592 4158300.935543   145.395589
H  -1665147.442506 4158765.441148   -12.292497
3
Frame 209, ANI=0.000, GB=-119.889 kcal/mol
O      2.997004 -526527.126940    -8.426336
H  1673105.386880 4178292.764175   146.094606
H  -1673152.955394 4178759.502979   -12.351595
3
Frame 210, ANI=0.000, GB=-119.889 kcal/mol
O      3.011343 -529046.395494    -8.466654
H  1681110.672168 4198284.592806   146.793624
H  -1681158.468282 4198753.564811   -12.410694
3
Frame 211, ANI=0.000, GB=-119.889 kcal/mol
O      3.025683 -531565.664047    -8.506971
H  1689115.957455 4218276.421437   147.492641
H  -1689163.981170 4218747.626642   -12.469793
3
Frame 212, ANI=0.000, GB=-119.889 kcal/mol
O      3.040023 -534084.932600    -8.547289
H  1697121.242743 4238268.250069   148.191658
H  -1697169.494058 4238741.688474   -12.528891
3
Frame 213, ANI=0.000, GB=-119.889 kcal/mol
O      3.054363 -536604.201154    -8.587606
H  1705126.528030 4258260.078700   148.890675
H  -1705175.006946 4258735.750305   -12.587990
3
Frame 214, ANI=0.000, GB=-119.889 kcal/mol
O      3.068702 -539123.469707    -8.627923
H  1713131.813318 4278251.907332   149.589693
H  -1713180.519834 4278729.812136   -12.647088
3
Frame 215, ANI=0.000, GB=-119.889 kcal/mol
O      3.083042 -541642.738261    -8.668241
H  1721137.098605 4298243.735963   150.288710
H  -1721186.032722 4298723.873968   -12.706187
3
Frame 216, ANI=0.000, GB=-119.889 kcal/mol
O      3.097382 -544162.006814    -8.708558
H  1729142.383893 4318235.564595   150.987727
H  -1729191.545610 4318717.935800   -12.765285
3
Frame 217, ANI=0.000, GB=-119.889 kcal/mol
O      3.111722 -546681.275368    -8.748876
H  1737147.669180 4338227.393226   151.686744
H  -1737197.058498 4338711.997631   -12.824384
3
Frame 218, ANI=0.000, GB=-119.889 kcal/mol
O      3.126061 -549200.543921    -8.789193
H  1745152.954468 4358219.221858   152.385762
H  -1745202.571386 4358706.059463   -12.883482
3
Frame 219, ANI=0.000, GB=-119.889 kcal/mol
O      3.140401 -551719.812475    -8.829510
H  1753158.239755 4378211.050489   153.084779
H  -1753208.084274 4378700.121294   -12.942581
3
Frame 220, ANI=0.000, GB=-119.889 kcal/mol
O      3.154741 -554239.081028    -8.869828
H  1761163.525042 4398202.879121   153.783796
H  -1761213.597162 4398694.183126   -13.001679
3
Frame 221, ANI=0.000, GB=-119.889 kcal/mol
O      3.169080 -556758.349582    -8.910145
H  1769168.810330 4418194.707753   154.482813
H  -1769219.110050 4418688.244957   -13.060778
3
Frame 222, ANI=0.000, GB=-119.889 kcal/mol
O      3.183420 -559277.618135    -8.950463
H  1777174.095617 4438186.536384   155.181831
H  -1777224.622938 4438682.306789   -13.119876
3
Frame 223, ANI=0.000, GB=-119.889 kcal/mol
O      3.197760 -561796.886689    -8.990780
H  1785179.380904 4458178.365016   155.880848
H  -1785230.135826 4458676.368621   -13.178975
3
Frame 224, ANI=0.000, GB=-119.889 kcal/mol
O      3.212100 -564316.155242    -9.031097
H  1793184.666192 4478170.193648   156.579865
H  -1793235.648714 4478670.430452   -13.238074
3
Frame 225, ANI=0.000, GB=-119.889 kcal/mol
O      3.226439 -566835.423795    -9.071415
H  1801189.951479 4498162.022279   157.278882
H  -1801241.161602 4498664.492284   -13.297172
3
Frame 226, ANI=0.000, GB=-119.889 kcal/mol
O      3.240779 -569354.692349    -9.111732
H  1809195.236766 4518153.850911   157.977900
H  -1809246.674490 4518658.554116   -13.356271
3
Frame 227, ANI=0.000, GB=-119.889 kcal/mol
O      3.255119 -571873.960902    -9.152050
H  1817200.522054 4538145.679543   158.676917
H  -1817252.187377 4538652.615948   -13.415369
3
Frame 228, ANI=0.000, GB=-119.889 kcal/mol
O      3.269459 -574393.229456    -9.192367
H  1825205.807341 4558137.508174   159.375934
H  -1825257.700265 4558646.677779   -13.474468
3
Frame 229, ANI=0.000, GB=-119.889 kcal/mol
O      3.283798 -576912.498009    -9.232684
H  1833211.092628 4578129.336806   160.074951
H  -1833263.213153 4578640.739611   -13.533566
3
Frame 230, ANI=0.000, GB=-119.889 kcal/mol
O      3.298138 -579431.766563    -9.273002
H  1841216.377915 4598121.165438   160.773969
H  -1841268.726041 4598634.801443   -13.592665
3
Frame 231, ANI=0.000, GB=-119.889 kcal/mol
O      3.312478 -581951.035116    -9.313319
H  1849221.663203 4618112.994070   161.472986
H  -1849274.238929 4618628.863275   -13.651763
3
Frame 232, ANI=0.000, GB=-119.889 kcal/mol
O      3.326817 -584470.303670    -9.353636
H  1857226.948490 4638104.822702   162.172003
H  -1857279.751816 4638622.925107   -13.710862
3
Frame 233, ANI=0.000, GB=-119.889 kcal/mol
O      3.341157 -586989.572223    -9.393954
H  1865232.233777 4658096.651334   162.871020
H  -1865285.264704 4658616.986938   -13.769960
3
Frame 234, ANI=0.000, GB=-119.889 kcal/mol
O      3.355497 -589508.840777    -9.434271
H  1873237.519064 4678088.479965   163.570038
H  -1873290.777592 4678611.048770   -13.829059
3
Frame 235, ANI=0.000, GB=-119.889 kcal/mol
O      3.369837 -592028.109330    -9.474589
H  1881242.804351 4698080.308597   164.269055
H  -1881296.290480 4698605.110602   -13.888158
3
Frame 236, ANI=0.000, GB=-119.889 kcal/mol
O      3.384176 -594547.377884    -9.514906
H  1889248.089639 4718072.137229   164.968072
H  -1889301.803367 4718599.172434   -13.947256
3
Frame 237, ANI=0.000, GB=-119.889 kcal/mol
O      3.398516 -597066.646437    -9.555223
H  1897253.374926 4738063.965861   165.667089
H  -1897307.316255 4738593.234266   -14.006355
3
Frame 238, ANI=0.000, GB=-119.889 kcal/mol
O      3.412856 -599585.914991    -9.595541
H  1905258.660213 4758055.794493   166.366107
H  -1905312.829143 4758587.296098   -14.065453
3
Frame 239, ANI=0.000, GB=-119.889 kcal/mol
O      3.427196 -602105.183544    -9.635858
H  1913263.945500 4778047.623125   167.065124
H  -1913318.342030 4778581.357930   -14.124552
3
Frame 240, ANI=0.000, GB=-119.889 kcal/mol
O      3.441535 -604624.452098    -9.676176
H  1921269.230787 4798039.451757   167.764141
H  -1921323.854918 4798575.419762   -14.183650
3
Frame 241, ANI=0.000, GB=-119.889 kcal/mol
O      3.455875 -607143.720651    -9.716493
H  1929274.516074 4818031.280389   168.463158
H  -1929329.367805 4818569.481594   -14.242749
3
Frame 242, ANI=0.000, GB=-119.889 kcal/mol
O      3.470215 -609662.989205    -9.756810
H  1937279.801361 4838023.109021   169.162176
H  -1937334.880693 4838563.543426   -14.301847
3
Frame 243, ANI=0.000, GB=-119.889 kcal/mol
O      3.484555 -612182.257758    -9.797128
H  1945285.086648 4858014.937653   169.861193
H  -1945340.393581 4858557.605258   -14.360946
3
Frame 244, ANI=0.000, GB=-119.889 kcal/mol
O      3.498894 -614701.526312    -9.837445
H  1953290.371935 4878006.766285   170.560210
H  -1953345.906468 4878551.667090   -14.420044
3
Frame 245, ANI=0.000, GB=-119.889 kcal/mol
O      3.513234 -617220.794866    -9.877763
H  1961295.657222 4897998.594917   171.259227
H  -1961351.419356 4898545.728922   -14.479143
3
Frame 246, ANI=0.000, GB=-119.889 kcal/mol
O      3.527574 -619740.063419    -9.918080
H  1969300.942509 4917990.423549   171.958245
H  -1969356.932243 4918539.790754   -14.538241
3
Frame 247, ANI=0.000, GB=-119.889 kcal/mol
O      3.541913 -622259.331973    -9.958397
H  1977306.227796 4937982.252181   172.657262
H  -1977362.445131 4938533.852586   -14.597340
3
Frame 248, ANI=0.000, GB=-119.889 kcal/mol
O      3.556253 -624778.600526    -9.998715
H  1985311.513083 4957974.080813   173.356279
H  -1985367.958018 4958527.914418   -14.656439
3
Frame 249, ANI=0.000, GB=-119.889 kcal/mol
O      3.570593 -627297.869080   -10.039032
H  1993316.798370 4977965.909445   174.055296
H  -1993373.470906 4978521.976250   -14.715537
3
Frame 250, ANI=0.000, GB=-119.889 kcal/mol
O      3.584933 -629817.137633   -10.079350
H  2001322.083657 4997957.738078   174.754314
H  -2001378.983793 4998516.038083   -14.774636
3
Frame 251, ANI=0.000, GB=-119.889 kcal/mol
O      3.599272 -632336.406187   -10.119667
H  2009327.368944 5017949.566710   175.453331
H  -2009384.496681 5018510.099915   -14.833734
3
Frame 252, ANI=0.000, GB=-119.889 kcal/mol
O      3.613612 -634855.674740   -10.159984
H  2017332.654231 5037941.395342   176.152348
H  -2017390.009568 5038504.161747   -14.892833
3
Frame 253, ANI=0.000, GB=-119.889 kcal/mol
O      3.627952 -637374.943294   -10.200302
H  2025337.939518 5057933.223974   176.851365
H  -2025395.522456 5058498.223579   -14.951931
3
Frame 254, ANI=0.000, GB=-119.889 kcal/mol
O      3.642292 -639894.211847   -10.240619
H  2033343.224805 5077925.052606   177.550383
H  -2033401.035343 5078492.285411   -15.011030
3
Frame 255, ANI=0.000, GB=-119.889 kcal/mol
O      3.656631 -642413.480401   -10.280937
H  2041348.510092 5097916.881238   178.249400
H  -2041406.548231 5098486.347243   -15.070128
3
Frame 256, ANI=0.000, GB=-119.889 kcal/mol
O      3.670971 -644932.748954   -10.321254
H  2049353.795379 5117908.709871   178.948417
H  -2049412.061118 5118480.409076   -15.129227
3
Frame 257, ANI=0.000, GB=-119.889 kcal/mol
O      3.685311 -647452.017508   -10.361571
H  2057359.080665 5137900.538503   179.647434
H  -2057417.574006 5138474.470908   -15.188325
3
Frame 258, ANI=0.000, GB=-119.889 kcal/mol
O      3.699650 -649971.286062   -10.401889
H  2065364.365952 5157892.367135   180.346452
H  -2065423.086893 5158468.532740   -15.247424
3
Frame 259, ANI=0.000, GB=-119.889 kcal/mol
O      3.713990 -652490.554615   -10.442206
H  2073369.651239 5177884.195767   181.045469
H  -2073428.599780 5178462.594572   -15.306523
3
Frame 260, ANI=0.000, GB=-119.889 kcal/mol
O      3.728330 -655009.823169   -10.482524
H  2081374.936526 5197876.024400   181.744486
H  -2081434.112668 5198456.656405   -15.365621
3
Frame 261, ANI=0.000, GB=-119.889 kcal/mol
O      3.742670 -657529.091722   -10.522841
H  2089380.221813 5217867.853032   182.443503
H  -2089439.625555 5218450.718237   -15.424720
3
Frame 262, ANI=0.000, GB=-119.889 kcal/mol
O      3.757009 -660048.360276   -10.563158
H  2097385.507100 5237859.681664   183.142521
H  -2097445.138442 5238444.780069   -15.483818
3
Frame 263, ANI=0.000, GB=-119.889 kcal/mol
O      3.771349 -662567.628829   -10.603476
H  2105390.792386 5257851.510297   183.841538
H  -2105450.651330 5258438.841902   -15.542917
3
Frame 264, ANI=0.000, GB=-119.889 kcal/mol
O      3.785689 -665086.897383   -10.643793
H  2113396.077673 5277843.338929   184.540555
H  -2113456.164217 5278432.903734   -15.602015
3
Frame 265, ANI=0.000, GB=-119.889 kcal/mol
O      3.800029 -667606.165936   -10.684111
H  2121401.362960 5297835.167561   185.239572
H  -2121461.677104 5298426.965566   -15.661114
3
Frame 266, ANI=0.000, GB=-119.889 kcal/mol
O      3.814368 -670125.434490   -10.724428
H  2129406.648247 5317826.996194   185.938590
H  -2129467.189992 5318421.027399   -15.720212
3
Frame 267, ANI=0.000, GB=-119.889 kcal/mol
O      3.828708 -672644.703044   -10.764745
H  2137411.933533 5337818.824826   186.637607
H  -2137472.702879 5338415.089231   -15.779311
3
Frame 268, ANI=0.000, GB=-119.889 kcal/mol
O      3.843048 -675163.971597   -10.805063
H  2145417.218820 5357810.653458   187.336624
H  -2145478.215766 5358409.151064   -15.838409
3
Frame 269, ANI=0.000, GB=-119.889 kcal/mol
O      3.857388 -677683.240151   -10.845380
H  2153422.504107 5377802.482091   188.035642
H  -2153483.728654 5378403.212896   -15.897508
3
Frame 270, ANI=0.000, GB=-119.889 kcal/mol
O      3.871727 -680202.508704   -10.885698
H  2161427.789394 5397794.310723   188.734659
H  -2161489.241541 5398397.274728   -15.956606
3
Frame 271, ANI=0.000, GB=-119.889 kcal/mol
O      3.886067 -682721.777258   -10.926015
H  2169433.074680 5417786.139356   189.433676
H  -2169494.754428 5418391.336561   -16.015705
3
Frame 272, ANI=0.000, GB=-119.889 kcal/mol
O      3.900407 -685241.045811   -10.966332
H  2177438.359967 5437777.967988   190.132693
H  -2177500.267315 5438385.398393   -16.074804
3
Frame 273, ANI=0.000, GB=-119.889 kcal/mol
O      3.914746 -687760.314365   -11.006650
H  2185443.645254 5457769.796621   190.831711
H  -2185505.780202 5458379.460226   -16.133902
3
Frame 274, ANI=0.000, GB=-119.889 kcal/mol
O      3.929086 -690279.582919   -11.046967
H  2193448.930540 5477761.625253   191.530728
H  -2193511.293090 5478373.522058   -16.193001
3
Frame 275, ANI=0.000, GB=-119.889 kcal/mol
O      3.943426 -692798.851472   -11.087285
H  2201454.215827 5497753.453886   192.229745
H  -2201516.805977 5498367.583891   -16.252099
3
Frame 276, ANI=0.000, GB=-119.889 kcal/mol
O      3.957766 -695318.120026   -11.127602
H  2209459.501114 5517745.282518   192.928762
H  -2209522.318864 5518361.645723   -16.311198
3
Frame 277, ANI=0.000, GB=-119.889 kcal/mol
O      3.972105 -697837.388579   -11.167919
H  2217464.786400 5537737.111151   193.627780
H  -2217527.831751 5538355.707556   -16.370296
3
Frame 278, ANI=0.000, GB=-119.889 kcal/mol
O      3.986445 -700356.657133   -11.208237
H  2225470.071687 5557728.939783   194.326797
H  -2225533.344638 5558349.769388   -16.429395
3
Frame 279, ANI=0.000, GB=-119.889 kcal/mol
O      4.000785 -702875.925686   -11.248554
H  2233475.356974 5577720.768416   195.025814
H  -2233538.857526 5578343.831221   -16.488493
3
Frame 280, ANI=0.000, GB=-119.889 kcal/mol
O      4.015125 -705395.194240   -11.288872
H  2241480.642260 5597712.597048   195.724831
H  -2241544.370413 5598337.893053   -16.547592
3
Frame 281, ANI=0.000, GB=-119.889 kcal/mol
O      4.029464 -707914.462794   -11.329189
H  2249485.927547 5617704.425681   196.423849
H  -2249549.883300 5618331.954886   -16.606690
3
Frame 282, ANI=0.000, GB=-119.889 kcal/mol
O      4.043804 -710433.731347   -11.369506
H  2257491.212833 5637696.254313   197.122866
H  -2257555.396187 5638326.016719   -16.665789
3
Frame 283, ANI=0.000, GB=-119.889 kcal/mol
O      4.058144 -712952.999901   -11.409824
H  2265496.498120 5657688.082946   197.821883
H  -2265560.909074 5658320.078551   -16.724888
3
Frame 284, ANI=0.000, GB=-119.889 kcal/mol
O      4.072483 -715472.268454   -11.450141
H  2273501.783407 5677679.911579   198.520900
H  -2273566.421961 5678314.140384   -16.783986
3
Frame 285, ANI=0.000, GB=-119.889 kcal/mol
O      4.086823 -717991.537008   -11.490459
H  2281507.068693 5697671.740211   199.219918
H  -2281571.934848 5698308.202216   -16.843085
3
Frame 286, ANI=0.000, GB=-119.889 kcal/mol
O      4.101163 -720510.805562   -11.530776
H  2289512.353980 5717663.568844   199.918935
H  -2289577.447735 5718302.264049   -16.902183
3
Frame 287, ANI=0.000, GB=-119.889 kcal/mol
O      4.115503 -723030.074115   -11.571093
H  2297517.639266 5737655.397476   200.617952
H  -2297582.960623 5738296.325882   -16.961282
3
Frame 288, ANI=0.000, GB=-119.889 kcal/mol
O      4.129842 -725549.342669   -11.611411
H  2305522.924553 5757647.226109   201.316969
H  -2305588.473510 5758290.387714   -17.020380
3
Frame 289, ANI=0.000, GB=-119.889 kcal/mol
O      4.144182 -728068.611222   -11.651728
H  2313528.209839 5777639.054742   202.015987
H  -2313593.986397 5778284.449547   -17.079479
3
Frame 290, ANI=0.000, GB=-119.889 kcal/mol
O      4.158522 -730587.879776   -11.692046
H  2321533.495126 5797630.883374   202.715004
H  -2321599.499284 5798278.511380   -17.138577
3
Frame 291, ANI=0.000, GB=-119.889 kcal/mol
O      4.172862 -733107.148330   -11.732363
H  2329538.780412 5817622.712007   203.414021
H  -2329605.012171 5818272.573212   -17.197676
3
Frame 292, ANI=0.000, GB=-119.889 kcal/mol
O      4.187201 -735626.416883   -11.772680
H  2337544.065699 5837614.540640   204.113038
H  -2337610.525058 5838266.635045   -17.256774
3
Frame 293, ANI=0.000, GB=-119.889 kcal/mol
O      4.201541 -738145.685437   -11.812998
H  2345549.350985 5857606.369272   204.812056
H  -2345616.037945 5858260.696878   -17.315873
3
Frame 294, ANI=0.000, GB=-119.889 kcal/mol
O      4.215881 -740664.953990   -11.853315
H  2353554.636272 5877598.197905   205.511073
H  -2353621.550832 5878254.758711   -17.374971
3
Frame 295, ANI=0.000, GB=-119.889 kcal/mol
O      4.230221 -743184.222544   -11.893633
H  2361559.921558 5897590.026538   206.210090
H  -2361627.063719 5898248.820543   -17.434070
3
Frame 296, ANI=0.000, GB=-119.889 kcal/mol
O      4.244560 -745703.491098   -11.933950
H  2369565.206845 5917581.855171   206.909107
H  -2369632.576606 5918242.882376   -17.493169
3
Frame 297, ANI=0.000, GB=-119.889 kcal/mol
O      4.258900 -748222.759651   -11.974267
H  2377570.492131 5937573.683803   207.608125
H  -2377638.089493 5938236.944209   -17.552267
3
Frame 298, ANI=0.000, GB=-119.889 kcal/mol
O      4.273240 -750742.028205   -12.014585
H  2385575.777417 5957565.512436   208.307142
H  -2385643.602380 5958231.006042   -17.611366
3
Frame 299, ANI=0.000, GB=-119.889 kcal/mol
O      4.287579 -753261.296758   -12.054902
H  2393581.062704 5977557.341069   209.006159
H  -2393649.115267 5978225.067874   -17.670464
3
Frame 300, ANI=0.000, GB=-119.889 kcal/mol
O      4.301919 -755780.565312   -12.095220
H  2401586.347990 5997549.169702   209.705176
H  -2401654.628154 5998219.129707   -17.729563
3
Frame 301, ANI=0.000, GB=-119.889 kcal/mol
O      4.316259 -758299.833866   -12.135537
H  2409591.633277 6017540.998334   210.404194
H  -2409660.141041 6018213.191540   -17.788661
3
Frame 302, ANI=0.000, GB=-119.889 kcal/mol
O      4.330599 -760819.102419   -12.175854
H  2417596.918563 6037532.826967   211.103211
H  -2417665.653928 6038207.253373   -17.847760
3
Frame 303, ANI=0.000, GB=-119.889 kcal/mol
O      4.344938 -763338.370973   -12.216172
H  2425602.203849 6057524.655600   211.802228
H  -2425671.166815 6058201.315206   -17.906858
3
Frame 304, ANI=0.000, GB=-119.889 kcal/mol
O      4.359278 -765857.639527   -12.256489
H  2433607.489136 6077516.484233   212.501245
H  -2433676.679701 6078195.377038   -17.965957
3
Frame 305, ANI=0.000, GB=-119.889 kcal/mol
O      4.373618 -768376.908080   -12.296807
H  2441612.774422 6097508.312866   213.200263
H  -2441682.192588 6098189.438871   -18.025055
3
Frame 306, ANI=0.000, GB=-119.889 kcal/mol
O      4.387958 -770896.176634   -12.337124
H  2449618.059709 6117500.141499   213.899280
H  -2449687.705475 6118183.500704   -18.084154
3
Frame 307, ANI=0.000, GB=-119.889 kcal/mol
O      4.402297 -773415.445187   -12.377441
H  2457623.344995 6137491.970131   214.598297
H  -2457693.218362 6138177.562537   -18.143252
3
Frame 308, ANI=0.000, GB=-119.889 kcal/mol
O      4.416637 -775934.713741   -12.417759
H  2465628.630281 6157483.798764   215.297314
H  -2465698.731249 6158171.624370   -18.202351
3
Frame 309, ANI=0.000, GB=-119.889 kcal/mol
O      4.430977 -778453.982295   -12.458076
H  2473633.915568 6177475.627397   215.996332
H  -2473704.244136 6178165.686203   -18.261450
3
Frame 310, ANI=0.000, GB=-119.889 kcal/mol
O      4.445316 -780973.250848   -12.498394
H  2481639.200854 6197467.456030   216.695349
H  -2481709.757023 6198159.748036   -18.320548
3
Frame 311, ANI=0.000, GB=-119.889 kcal/mol
O      4.459656 -783492.519402   -12.538711
H  2489644.486140 6217459.284663   217.394366
H  -2489715.269910 6218153.809869   -18.379647
3
Frame 312, ANI=0.000, GB=-119.889 kcal/mol
O      4.473996 -786011.787956   -12.579028
H  2497649.771427 6237451.113296   218.093383
H  -2497720.782797 6238147.871701   -18.438745
3
Frame 313, ANI=0.000, GB=-119.889 kcal/mol
O      4.488336 -788531.056509   -12.619346
H  2505655.056713 6257442.941929   218.792401
H  -2505726.295683 6258141.933534   -18.497844
3
Frame 314, ANI=0.000, GB=-119.889 kcal/mol
O      4.502675 -791050.325063   -12.659663
H  2513660.341999 6277434.770562   219.491418
H  -2513731.808570 6278135.995367   -18.556942
3
Frame 315, ANI=0.000, GB=-119.889 kcal/mol
O      4.517015 -793569.593616   -12.699981
H  2521665.627285 6297426.599195   220.190435
H  -2521737.321457 6298130.057200   -18.616041
3
Frame 316, ANI=0.000, GB=-119.889 kcal/mol
O      4.531355 -796088.862170   -12.740298
H  2529670.912572 6317418.427828   220.889452
H  -2529742.834344 6318124.119033   -18.675139
3
Frame 317, ANI=0.000, GB=-119.889 kcal/mol
O      4.545695 -798608.130724   -12.780615
H  2537676.197858 6337410.256461   221.588470
H  -2537748.347231 6338118.180866   -18.734238
3
Frame 318, ANI=0.000, GB=-119.889 kcal/mol
O      4.560034 -801127.399277   -12.820933
H  2545681.483144 6357402.085094   222.287487
H  -2545753.860117 6358112.242699   -18.793336
3
Frame 319, ANI=0.000, GB=-119.889 kcal/mol
O      4.574374 -803646.667831   -12.861250
H  2553686.768431 6377393.913727   222.986504
H  -2553759.373004 6378106.304532   -18.852435
3
Frame 320, ANI=0.000, GB=-119.889 kcal/mol
O      4.588714 -806165.936385   -12.901568
H  2561692.053717 6397385.742360   223.685521
H  -2561764.885891 6398100.366365   -18.911534
3
Frame 321, ANI=0.000, GB=-119.889 kcal/mol
O      4.603054 -808685.204938   -12.941885
H  2569697.339003 6417377.570993   224.384539
H  -2569770.398778 6418094.428198   -18.970632
3
Frame 322, ANI=0.000, GB=-119.889 kcal/mol
O      4.617393 -811204.473492   -12.982202
H  2577702.624289 6437369.399626   225.083556
H  -2577775.911665 6438088.490031   -19.029731
3
Frame 323, ANI=0.000, GB=-119.889 kcal/mol
O      4.631733 -813723.742046   -13.022520
H  2585707.909575 6457361.228259   225.782573
H  -2585781.424551 6458082.551864   -19.088829
3
Frame 324, ANI=0.000, GB=-119.889 kcal/mol
O      4.646073 -816243.010599   -13.062837
H  2593713.194862 6477353.056892   226.481590
H  -2593786.937438 6478076.613697   -19.147928
3
Frame 325, ANI=0.000, GB=-119.889 kcal/mol
O      4.660412 -818762.279153   -13.103155
H  2601718.480148 6497344.885525   227.180608
H  -2601792.450325 6498070.675530   -19.207026
3
Frame 326, ANI=0.000, GB=-119.889 kcal/mol
O      4.674752 -821281.547707   -13.143472
H  2609723.765434 6517336.714158   227.879625
H  -2609797.963212 6518064.737363   -19.266125
3
Frame 327, ANI=0.000, GB=-119.889 kcal/mol
O      4.689092 -823800.816260   -13.183789
H  2617729.050720 6537328.542791   228.578642
H  -2617803.476098 6538058.799196   -19.325223
3
Frame 328, ANI=0.000, GB=-119.889 kcal/mol
O      4.703432 -826320.084814   -13.224107
H  2625734.336006 6557320.371424   229.277660
H  -2625808.988985 6558052.861029   -19.384322
3
Frame 329, ANI=0.000, GB=-119.889 kcal/mol
O      4.717771 -828839.353368   -13.264424
H  2633739.621293 6577312.200057   229.976677
H  -2633814.501872 6578046.922863   -19.443420
3
Frame 330, ANI=0.000, GB=-119.889 kcal/mol
O      4.732111 -831358.621921   -13.304742
H  2641744.906579 6597304.028690   230.675694
H  -2641820.014759 6598040.984696   -19.502519
3
Frame 331, ANI=0.000, GB=-119.889 kcal/mol
O      4.746451 -833877.890475   -13.345059
H  2649750.191865 6617295.857323   231.374711
H  -2649825.527645 6618035.046529   -19.561617
3
Frame 332, ANI=0.000, GB=-119.889 kcal/mol
O      4.760791 -836397.159028   -13.385376
H  2657755.477151 6637287.685956   232.073729
H  -2657831.040532 6638029.108362   -19.620716
3
Frame 333, ANI=0.000, GB=-119.889 kcal/mol
O      4.775130 -838916.427582   -13.425694
H  2665760.762437 6657279.514589   232.772746
H  -2665836.553419 6658023.170195   -19.679815
3
Frame 334, ANI=0.000, GB=-119.889 kcal/mol
O      4.789470 -841435.696136   -13.466011
H  2673766.047723 6677271.343222   233.471763
H  -2673842.066305 6678017.232028   -19.738913
3
Frame 335, ANI=0.000, GB=-119.889 kcal/mol
O      4.803810 -843954.964689   -13.506329
H  2681771.333010 6697263.171856   234.170780
H  -2681847.579192 6698011.293861   -19.798012
3
Frame 336, ANI=0.000, GB=-119.889 kcal/mol
O      4.818149 -846474.233243   -13.546646
H  2689776.618296 6717255.000489   234.869798
H  -2689853.092079 6718005.355694   -19.857110
3
Frame 337, ANI=0.000, GB=-119.889 kcal/mol
O      4.832489 -848993.501797   -13.586963
H  2697781.903582 6737246.829122   235.568815
H  -2697858.604965 6737999.417528   -19.916209
3
Frame 338, ANI=0.000, GB=-119.889 kcal/mol
O      4.846829 -851512.770350   -13.627281
H  2705787.188868 6757238.657755   236.267832
H  -2705864.117852 6757993.479361   -19.975307
3
Frame 339, ANI=0.000, GB=-119.889 kcal/mol
O      4.861169 -854032.038904   -13.667598
H  2713792.474154 6777230.486388   236.966849
H  -2713869.630739 6777987.541194   -20.034406
3
Frame 340, ANI=0.000, GB=-119.889 kcal/mol
O      4.875508 -856551.307458   -13.707916
H  2721797.759440 6797222.315021   237.665867
H  -2721875.143625 6797981.603027   -20.093504
3
Frame 341, ANI=0.000, GB=-119.889 kcal/mol
O      4.889848 -859070.576011   -13.748233
H  2729803.044726 6817214.143654   238.364884
H  -2729880.656512 6817975.664860   -20.152603
3
Frame 342, ANI=0.000, GB=-119.889 kcal/mol
O      4.904188 -861589.844565   -13.788550
H  2737808.330012 6837205.972288   239.063901
H  -2737886.169399 6837969.726693   -20.211701
3
Frame 343, ANI=0.000, GB=-119.889 kcal/mol
O      4.918528 -864109.113119   -13.828868
H  2745813.615298 6857197.800921   239.762918
H  -2745891.682285 6857963.788527   -20.270800
3
Frame 344, ANI=0.000, GB=-119.889 kcal/mol
O      4.932867 -866628.381672   -13.869185
H  2753818.900584 6877189.629554   240.461936
H  -2753897.195172 6877957.850360   -20.329899
3
Frame 345, ANI=0.000, GB=-119.889 kcal/mol
O      4.947207 -869147.650226   -13.909503
H  2761824.185870 6897181.458187   241.160953
H  -2761902.708058 6897951.912193   -20.388997
3
Frame 346, ANI=0.000, GB=-119.889 kcal/mol
O      4.961547 -871666.918780   -13.949820
H  2769829.471157 6917173.286820   241.859970
H  -2769908.220945 6917945.974026   -20.448096
3
Frame 347, ANI=0.000, GB=-119.889 kcal/mol
O      4.975886 -874186.187333   -13.990137
H  2777834.756443 6937165.115454   242.558987
H  -2777913.733832 6937940.035859   -20.507194
3
Frame 348, ANI=0.000, GB=-119.889 kcal/mol
O      4.990226 -876705.455887   -14.030455
H  2785840.041729 6957156.944087   243.258005
H  -2785919.246718 6957934.097693   -20.566293
3
Frame 349, ANI=0.000, GB=-119.889 kcal/mol
O      5.004566 -879224.724441   -14.070772
H  2793845.327015 6977148.772720   243.957022
H  -2793924.759605 6977928.159526   -20.625391
3
Frame 350, ANI=0.000, GB=-119.889 kcal/mol
O      5.018906 -881743.992994   -14.111090
H  2801850.612301 6997140.601353   244.656039
H  -2801930.272491 6997922.221359   -20.684490
3
Frame 351, ANI=0.000, GB=-119.889 kcal/mol
O      5.033245 -884263.261548   -14.151407
H  2809855.897587 7017132.429987   245.355056
H  -2809935.785378 7017916.283192   -20.743588
3
Frame 352, ANI=0.000, GB=-119.889 kcal/mol
O      5.047585 -886782.530102   -14.191724
H  2817861.182873 7037124.258620   246.054074
H  -2817941.298264 7037910.345026   -20.802687
3
Frame 353, ANI=0.000, GB=-119.889 kcal/mol
O      5.061925 -889301.798655   -14.232042
H  2825866.468159 7057116.087253   246.753091
H  -2825946.811151 7057904.406859   -20.861785
3
Frame 354, ANI=0.000, GB=-119.889 kcal/mol
O      5.076265 -891821.067209   -14.272359
H  2833871.753445 7077107.915886   247.452108
H  -2833952.324038 7077898.468692   -20.920884
3
Frame 355, ANI=0.000, GB=-119.889 kcal/mol
O      5.090604 -894340.335763   -14.312677
H  2841877.038731 7097099.744520   248.151125
H  -2841957.836924 7097892.530526   -20.979982
3
Frame 356, ANI=0.000, GB=-119.889 kcal/mol
O      5.104944 -896859.604317   -14.352994
H  2849882.324017 7117091.573153   248.850143
H  -2849963.349811 7117886.592359   -21.039081
3
Frame 357, ANI=0.000, GB=-119.889 kcal/mol
O      5.119284 -899378.872870   -14.393311
H  2857887.609303 7137083.401786   249.549160
H  -2857968.862697 7137880.654192   -21.098180
3
Frame 358, ANI=0.000, GB=-119.889 kcal/mol
O      5.133624 -901898.141424   -14.433629
H  2865892.894589 7157075.230420   250.248177
H  -2865974.375584 7157874.716026   -21.157278
3
Frame 359, ANI=0.000, GB=-119.889 kcal/mol
O      5.147963 -904417.409978   -14.473946
H  2873898.179875 7177067.059053   250.947194
H  -2873979.888470 7177868.777859   -21.216377
3
Frame 360, ANI=0.000, GB=-119.889 kcal/mol
O      5.162303 -906936.678531   -14.514264
H  2881903.465161 7197058.887686   251.646212
H  -2881985.401357 7197862.839692   -21.275475
3
Frame 361, ANI=0.000, GB=-119.889 kcal/mol
O      5.176643 -909455.947085   -14.554581
H  2889908.750447 7217050.716320   252.345229
H  -2889990.914243 7217856.901526   -21.334574
3
Frame 362, ANI=0.000, GB=-119.889 kcal/mol
O      5.190982 -911975.215639   -14.594898
H  2897914.035733 7237042.544953   253.044246
H  -2897996.427130 7237850.963359   -21.393672
3
Frame 363, ANI=0.000, GB=-119.889 kcal/mol
O      5.205322 -914494.484192   -14.635216
H  2905919.321018 7257034.373586   253.743263
H  -2906001.940016 7257845.025192   -21.452771
3
Frame 364, ANI=0.000, GB=-119.889 kcal/mol
O      5.219662 -917013.752746   -14.675533
H  2913924.606304 7277026.202220   254.442281
H  -2914007.452903 7277839.087026   -21.511869
3
Frame 365, ANI=0.000, GB=-119.889 kcal/mol
O      5.234002 -919533.021300   -14.715851
H  2921929.891590 7297018.030853   255.141298
H  -2922012.965789 7297833.148859   -21.570968
3
Frame 366, ANI=0.000, GB=-119.889 kcal/mol
O      5.248341 -922052.289853   -14.756168
H  2929935.176876 7317009.859486   255.840315
H  -2930018.478676 7317827.210692   -21.630066
3
Frame 367, ANI=0.000, GB=-119.889 kcal/mol
O      5.262681 -924571.558407   -14.796485
H  2937940.462162 7337001.688120   256.539332
H  -2938023.991562 7337821.272526   -21.689165
3
Frame 368, ANI=0.000, GB=-119.889 kcal/mol
O      5.277021 -927090.826961   -14.836803
H  2945945.747448 7356993.516753   257.238350
H  -2946029.504449 7357815.334359   -21.748264
3
Frame 369, ANI=0.000, GB=-119.889 kcal/mol
O      5.291361 -929610.095514   -14.877120
H  2953951.032734 7376985.345387   257.937367
H  -2954035.017335 7377809.396193   -21.807362
3
Frame 370, ANI=0.000, GB=-119.889 kcal/mol
O      5.305700 -932129.364068   -14.917438
H  2961956.318020 7396977.174020   258.636384
H  -2962040.530221 7397803.458026   -21.866461
3
Frame 371, ANI=0.000, GB=-119.889 kcal/mol
O      5.320040 -934648.632622   -14.957755
H  2969961.603306 7416969.002653   259.335401
H  -2970046.043108 7417797.519859   -21.925559
3
Frame 372, ANI=0.000, GB=-119.889 kcal/mol
O      5.334380 -937167.901176   -14.998072
H  2977966.888592 7436960.831287   260.034419
H  -2978051.555994 7437791.581693   -21.984658
3
Frame 373, ANI=0.000, GB=-119.889 kcal/mol
O      5.348719 -939687.169729   -15.038390
H  2985972.173878 7456952.659920   260.733436
H  -2986057.068881 7457785.643526   -22.043756
3
Frame 374, ANI=0.000, GB=-119.889 kcal/mol
O      5.363059 -942206.438283   -15.078707
H  2993977.459163 7476944.488554   261.432453
H  -2994062.581767 7477779.705360   -22.102855
3
Frame 375, ANI=0.000, GB=-119.889 kcal/mol
O      5.377399 -944725.706837   -15.119025
H  3001982.744449 7496936.317187   262.131470
H  -3002068.094654 7497773.767193   -22.161953
3
Frame 376, ANI=0.000, GB=-119.889 kcal/mol
O      5.391739 -947244.975390   -15.159342
H  3009988.029735 7516928.145821   262.830488
H  -3010073.607540 7517767.829027   -22.221052
3
Frame 377, ANI=0.000, GB=-119.889 kcal/mol
O      5.406078 -949764.243944   -15.199659
H  3017993.315021 7536919.974454   263.529505
H  -3018079.120426 7537761.890860   -22.280150
3
Frame 378, ANI=0.000, GB=-119.889 kcal/mol
O      5.420418 -952283.512498   -15.239977
H  3025998.600307 7556911.803088   264.228522
H  -3026084.633313 7557755.952694   -22.339249
3
Frame 379, ANI=0.000, GB=-119.889 kcal/mol
O      5.434758 -954802.781051   -15.280294
H  3034003.885593 7576903.631721   264.927539
H  -3034090.146199 7577750.014527   -22.398347
3
Frame 380, ANI=0.000, GB=-119.889 kcal/mol
O      5.449098 -957322.049605   -15.320612
H  3042009.170879 7596895.460354   265.626557
H  -3042095.659086 7597744.076360   -22.457446
3
Frame 381, ANI=0.000, GB=-119.889 kcal/mol
O      5.463437 -959841.318159   -15.360929
H  3050014.456164 7616887.288988   266.325574
H  -3050101.171972 7617738.138194   -22.516545
3
Frame 382, ANI=0.000, GB=-119.889 kcal/mol
O      5.477777 -962360.586713   -15.401246
H  3058019.741450 7636879.117621   267.024591
H  -3058106.684858 7637732.200027   -22.575643
3
Frame 383, ANI=0.000, GB=-119.889 kcal/mol
O      5.492117 -964879.855266   -15.441564
H  3066025.026736 7656870.946255   267.723608
H  -3066112.197745 7657726.261861   -22.634742
3
Frame 384, ANI=0.000, GB=-119.889 kcal/mol
O      5.506457 -967399.123820   -15.481881
H  3074030.312022 7676862.774888   268.422626
H  -3074117.710631 7677720.323694   -22.693840
3
Frame 385, ANI=0.000, GB=-119.889 kcal/mol
O      5.520796 -969918.392374   -15.522199
H  3082035.597308 7696854.603522   269.121643
H  -3082123.223517 7697714.385528   -22.752939
3
Frame 386, ANI=0.000, GB=-119.889 kcal/mol
O      5.535136 -972437.660927   -15.562516
H  3090040.882594 7716846.432155   269.820660
H  -3090128.736404 7717708.447362   -22.812037
3
Frame 387, ANI=0.000, GB=-119.889 kcal/mol
O      5.549476 -974956.929481   -15.602833
H  3098046.167879 7736838.260789   270.519678
H  -3098134.249290 7737702.509195   -22.871136
3
Frame 388, ANI=0.000, GB=-119.889 kcal/mol
O      5.563815 -977476.198035   -15.643151
H  3106051.453165 7756830.089422   271.218695
H  -3106139.762176 7757696.571029   -22.930234
3
Frame 389, ANI=0.000, GB=-119.889 kcal/mol
O      5.578155 -979995.466588   -15.683468
H  3114056.738451 7776821.918056   271.917712
H  -3114145.275063 7777690.632862   -22.989333
3
Frame 390, ANI=0.000, GB=-119.889 kcal/mol
O      5.592495 -982514.735142   -15.723786
H  3122062.023737 7796813.746690   272.616729
H  -3122150.787949 7797684.694696   -23.048431
3
Frame 391, ANI=0.000, GB=-119.889 kcal/mol
O      5.606835 -985034.003696   -15.764103
H  3130067.309023 7816805.575323   273.315747
H  -3130156.300835 7817678.756529   -23.107530
3
Frame 392, ANI=0.000, GB=-119.889 kcal/mol
O      5.621174 -987553.272250   -15.804420
H  3138072.594308 7836797.403957   274.014764
H  -3138161.813722 7837672.818363   -23.166628
3
Frame 393, ANI=0.000, GB=-119.889 kcal/mol
O      5.635514 -990072.540803   -15.844738
H  3146077.879594 7856789.232590   274.713781
H  -3146167.326608 7857666.880196   -23.225727
3
Frame 394, ANI=0.000, GB=-119.889 kcal/mol
O      5.649854 -992591.809357   -15.885055
H  3154083.164880 7876781.061224   275.412798
H  -3154172.839494 7877660.942030   -23.284826
3
Frame 395, ANI=0.000, GB=-119.889 kcal/mol
O      5.664194 -995111.077911   -15.925372
H  3162088.450166 7896772.889857   276.111816
H  -3162178.352381 7897655.003863   -23.343924
3
Frame 396, ANI=0.000, GB=-119.889 kcal/mol
O      5.678533 -997630.346464   -15.965690
H  3170093.735451 7916764.718491   276.810833
H  -3170183.865267 7917649.065697   -23.403023
3
Frame 397, ANI=0.000, GB=-119.889 kcal/mol
O      5.692873 -1000149.615018   -16.006007
H  3178099.020737 7936756.547124   277.509850
H  -3178189.378153 7937643.127531   -23.462121
3
Frame 398, ANI=0.000, GB=-119.889 kcal/mol
O      5.707213 -1002668.883572   -16.046325
H  3186104.306023 7956748.375758   278.208867
H  -3186194.891040 7957637.189364   -23.521220
3
Frame 399, ANI=0.000, GB=-119.889 kcal/mol
O      5.721552 -1005188.152126   -16.086642
H  3194109.591309 7976740.204392   278.907885
H  -3194200.403926 7977631.251198   -23.580318
3
Frame 400, ANI=0.000, GB=-119.889 kcal/mol
O      5.735892 -1007707.420679   -16.126959
H  3202114.876594 7996732.033025   279.606902
H  -3202205.916812 7997625.313031   -23.639417
3
Frame 401, ANI=0.000, GB=-119.889 kcal/mol
O      5.750232 -1010226.689233   -16.167277
H  3210120.161880 8016723.861659   280.305919
H  -3210211.429699 8017619.374865   -23.698515
3
Frame 402, ANI=0.000, GB=-119.889 kcal/mol
O      5.764572 -1012745.957787   -16.207594
H  3218125.447166 8036715.690292   281.004936
H  -3218216.942585 8037613.436699   -23.757614
3
Frame 403, ANI=0.000, GB=-119.889 kcal/mol
O      5.778911 -1015265.226341   -16.247912
H  3226130.732452 8056707.518926   281.703954
H  -3226222.455471 8057607.498532   -23.816712
3
Frame 404, ANI=0.000, GB=-119.889 kcal/mol
O      5.793251 -1017784.494894   -16.288229
H  3234136.017737 8076699.347560   282.402971
H  -3234227.968357 8077601.560366   -23.875811
3
Frame 405, ANI=0.000, GB=-119.889 kcal/mol
O      5.807591 -1020303.763448   -16.328546
H  3242141.303023 8096691.176193   283.101988
H  -3242233.481244 8097595.622200   -23.934910
3
Frame 406, ANI=0.000, GB=-119.889 kcal/mol
O      5.821931 -1022823.032002   -16.368864
H  3250146.588309 8116683.004827   283.801005
H  -3250238.994130 8117589.684033   -23.994008
3
Frame 407, ANI=0.000, GB=-119.889 kcal/mol
O      5.836270 -1025342.300555   -16.409181
H  3258151.873595 8136674.833461   284.500023
H  -3258244.507016 8137583.745867   -24.053107
3
Frame 408, ANI=0.000, GB=-119.889 kcal/mol
O      5.850610 -1027861.569109   -16.449499
H  3266157.158880 8156666.662094   285.199040
H  -3266250.019902 8157577.807701   -24.112205
3
Frame 409, ANI=0.000, GB=-119.889 kcal/mol
O      5.864950 -1030380.837663   -16.489816
H  3274162.444166 8176658.490728   285.898057
H  -3274255.532789 8177571.869534   -24.171304
3
Frame 410, ANI=0.000, GB=-119.889 kcal/mol
O      5.879290 -1032900.106217   -16.530133
H  3282167.729452 8196650.319362   286.597074
H  -3282261.045675 8197565.931368   -24.230402
3
Frame 411, ANI=0.000, GB=-119.889 kcal/mol
O      5.893629 -1035419.374770   -16.570451
H  3290173.014737 8216642.147995   287.296092
H  -3290266.558561 8217559.993202   -24.289501
3
Frame 412, ANI=0.000, GB=-119.889 kcal/mol
O      5.907969 -1037938.643324   -16.610768
H  3298178.300023 8236633.976629   287.995109
H  -3298272.071447 8237554.055035   -24.348599
3
Frame 413, ANI=0.000, GB=-119.889 kcal/mol
O      5.922309 -1040457.911878   -16.651086
H  3306183.585309 8256625.805263   288.694126
H  -3306277.584333 8257548.116869   -24.407698
3
Frame 414, ANI=0.000, GB=-119.889 kcal/mol
O      5.936648 -1042977.180432   -16.691403
H  3314188.870594 8276617.633896   289.393143
H  -3314283.097220 8277542.178703   -24.466796
3
Frame 415, ANI=0.000, GB=-119.889 kcal/mol
O      5.950988 -1045496.448985   -16.731720
H  3322194.155880 8296609.462530   290.092161
H  -3322288.610106 8297536.240536   -24.525895
3
Frame 416, ANI=0.000, GB=-119.889 kcal/mol
O      5.965328 -1048015.717539   -16.772038
H  3330199.441166 8316601.291164   290.791178
H  -3330294.122992 8317530.302370   -24.584993
3
Frame 417, ANI=0.000, GB=-119.889 kcal/mol
O      5.979668 -1050534.986093   -16.812355
H  3338204.726451 8336593.119797   291.490195
H  -3338299.635878 8337524.364204   -24.644092
3
Frame 418, ANI=0.000, GB=-119.889 kcal/mol
O      5.994007 -1053054.254646   -16.852673
H  3346210.011737 8356584.948431   292.189212
H  -3346305.148764 8357518.426037   -24.703191
3
Frame 419, ANI=0.000, GB=-119.889 kcal/mol
O      6.008347 -1055573.523200   -16.892990
H  3354215.297023 8376576.777065   292.888230
H  -3354310.661651 8377512.487871   -24.762289
3
Frame 420, ANI=0.000, GB=-119.889 kcal/mol
O      6.022687 -1058092.791754   -16.933307
H  3362220.582308 8396568.605698   293.587247
H  -3362316.174537 8397506.549705   -24.821388
3
Frame 421, ANI=0.000, GB=-119.889 kcal/mol
O      6.037027 -1060612.060308   -16.973625
H  3370225.867594 8416560.434332   294.286264
H  -3370321.687423 8417500.611539   -24.880486
3
Frame 422, ANI=0.000, GB=-119.889 kcal/mol
O      6.051366 -1063131.328861   -17.013942
H  3378231.152880 8436552.262966   294.985281
H  -3378327.200309 8437494.673372   -24.939585
3
Frame 423, ANI=0.000, GB=-119.889 kcal/mol
O      6.065706 -1065650.597415   -17.054260
H  3386236.438165 8456544.091600   295.684299
H  -3386332.713195 8457488.735206   -24.998683
3
Frame 424, ANI=0.000, GB=-119.889 kcal/mol
O      6.080046 -1068169.865969   -17.094577
H  3394241.723451 8476535.920233   296.383316
H  -3394338.226082 8477482.797040   -25.057782
3
Frame 425, ANI=0.000, GB=-119.889 kcal/mol
O      6.094385 -1070689.134523   -17.134894
H  3402247.008736 8496527.748867   297.082333
H  -3402343.738968 8497476.858874   -25.116880
3
Frame 426, ANI=0.000, GB=-119.889 kcal/mol
O      6.108725 -1073208.403076   -17.175212
H  3410252.294022 8516519.577501   297.781350
H  -3410349.251854 8517470.920707   -25.175979
3
Frame 427, ANI=0.000, GB=-119.889 kcal/mol
O      6.123065 -1075727.671630   -17.215529
H  3418257.579308 8536511.406135   298.480368
H  -3418354.764740 8537464.982541   -25.235077
3
Frame 428, ANI=0.000, GB=-119.889 kcal/mol
O      6.137405 -1078246.940184   -17.255847
H  3426262.864593 8556503.234768   299.179385
H  -3426360.277626 8557459.044375   -25.294176
3
Frame 429, ANI=0.000, GB=-119.889 kcal/mol
O      6.151744 -1080766.208738   -17.296164
H  3434268.149879 8576495.063402   299.878402
H  -3434365.790512 8577453.106209   -25.353275
3
Frame 430, ANI=0.000, GB=-119.889 kcal/mol
O      6.166084 -1083285.477291   -17.336481
H  3442273.435164 8596486.892036   300.577419
H  -3442371.303398 8597447.168042   -25.412373
3
Frame 431, ANI=0.000, GB=-119.889 kcal/mol
O      6.180424 -1085804.745845   -17.376799
H  3450278.720450 8616478.720670   301.276437
H  -3450376.816285 8617441.229876   -25.471472
3
Frame 432, ANI=0.000, GB=-119.889 kcal/mol
O      6.194764 -1088324.014399   -17.417116
H  3458284.005736 8636470.549304   301.975454
H  -3458382.329171 8637435.291710   -25.530570
3
Frame 433, ANI=0.000, GB=-119.889 kcal/mol
O      6.209103 -1090843.282952   -17.457434
H  3466289.291021 8656462.377937   302.674471
H  -3466387.842057 8657429.353544   -25.589669
3
Frame 434, ANI=0.000, GB=-119.889 kcal/mol
O      6.223443 -1093362.551506   -17.497751
H  3474294.576307 8676454.206571   303.373488
H  -3474393.354943 8677423.415378   -25.648767
3
Frame 435, ANI=0.000, GB=-119.889 kcal/mol
O      6.237783 -1095881.820060   -17.538068
H  3482299.861592 8696446.035205   304.072506
H  -3482398.867829 8697417.477211   -25.707866
3
Frame 436, ANI=0.000, GB=-119.889 kcal/mol
O      6.252123 -1098401.088614   -17.578386
H  3490305.146878 8716437.863839   304.771523
H  -3490404.380715 8717411.539045   -25.766964
3
Frame 437, ANI=0.000, GB=-119.889 kcal/mol
O      6.266462 -1100920.357167   -17.618703
H  3498310.432164 8736429.692473   305.470540
H  -3498409.893601 8737405.600879   -25.826063
3
Frame 438, ANI=0.000, GB=-119.889 kcal/mol
O      6.280802 -1103439.625721   -17.659021
H  3506315.717449 8756421.521106   306.169557
H  -3506415.406487 8757399.662713   -25.885161
3
Frame 439, ANI=0.000, GB=-119.889 kcal/mol
O      6.295142 -1105958.894275   -17.699338
H  3514321.002735 8776413.349740   306.868575
H  -3514420.919374 8777393.724547   -25.944260
3
Frame 440, ANI=0.000, GB=-119.889 kcal/mol
O      6.309481 -1108478.162829   -17.739655
H  3522326.288020 8796405.178374   307.567592
H  -3522426.432260 8797387.786380   -26.003358
3
Frame 441, ANI=0.000, GB=-119.889 kcal/mol
O      6.323821 -1110997.431382   -17.779973
H  3530331.573306 8816397.007008   308.266609
H  -3530431.945146 8817381.848214   -26.062457
3
Frame 442, ANI=0.000, GB=-119.889 kcal/mol
O      6.338161 -1113516.699936   -17.820290
H  3538336.858591 8836388.835642   308.965626
H  -3538437.458032 8837375.910048   -26.121556
3
Frame 443, ANI=0.000, GB=-119.889 kcal/mol
O      6.352501 -1116035.968490   -17.860608
H  3546342.143877 8856380.664275   309.664644
H  -3546442.970918 8857369.971882   -26.180654
3
Frame 444, ANI=0.000, GB=-119.889 kcal/mol
O      6.366840 -1118555.237044   -17.900925
H  3554347.429162 8876372.492909   310.363661
H  -3554448.483804 8877364.033716   -26.239753
3
Frame 445, ANI=0.000, GB=-119.889 kcal/mol
O      6.381180 -1121074.505597   -17.941242
H  3562352.714448 8896364.321543   311.062678
H  -3562453.996690 8897358.095550   -26.298851
3
Frame 446, ANI=0.000, GB=-119.889 kcal/mol
O      6.395520 -1123593.774151   -17.981560
H  3570357.999733 8916356.150177   311.761695
H  -3570459.509576 8917352.157384   -26.357950
3
Frame 447, ANI=0.000, GB=-119.889 kcal/mol
O      6.409860 -1126113.042705   -18.021877
H  3578363.285019 8936347.978811   312.460713
H  -3578465.022462 8937346.219217   -26.417048
3
Frame 448, ANI=0.000, GB=-119.889 kcal/mol
O      6.424199 -1128632.311259   -18.062195
H  3586368.570305 8956339.807445   313.159730
H  -3586470.535348 8957340.281051   -26.476147
3
Frame 449, ANI=0.000, GB=-119.889 kcal/mol
O      6.438539 -1131151.579812   -18.102512
H  3594373.855590 8976331.636079   313.858747
H  -3594476.048234 8977334.342885   -26.535245
3
Frame 450, ANI=0.000, GB=-119.889 kcal/mol
O      6.452879 -1133670.848366   -18.142829
H  3602379.140876 8996323.464712   314.557765
H  -3602481.561120 8997328.404719   -26.594344
3
Frame 451, ANI=0.000, GB=-119.889 kcal/mol
O      6.467218 -1136190.116920   -18.183147
H  3610384.426161 9016315.293346   315.256782
H  -3610487.074007 9017322.466553   -26.653442
3
Frame 452, ANI=0.000, GB=-119.889 kcal/mol
O      6.481558 -1138709.385474   -18.223464
H  3618389.711447 9036307.121980   315.955799
H  -3618492.586893 9037316.528387   -26.712541
3
Frame 453, ANI=0.000, GB=-119.889 kcal/mol
O      6.495898 -1141228.654027   -18.263782
H  3626394.996732 9056298.950614   316.654816
H  -3626498.099779 9057310.590221   -26.771640
3
Frame 454, ANI=0.000, GB=-119.889 kcal/mol
O      6.510238 -1143747.922581   -18.304099
H  3634400.282018 9076290.779248   317.353834
H  -3634503.612665 9077304.652055   -26.830738
3
Frame 455, ANI=0.000, GB=-119.889 kcal/mol
O      6.524577 -1146267.191135   -18.344416
H  3642405.567303 9096282.607882   318.052851
H  -3642509.125551 9097298.713889   -26.889837
3
Frame 456, ANI=0.000, GB=-119.889 kcal/mol
O      6.538917 -1148786.459689   -18.384734
H  3650410.852589 9116274.436516   318.751868
H  -3650514.638437 9117292.775722   -26.948935
3
Frame 457, ANI=0.000, GB=-119.889 kcal/mol
O      6.553257 -1151305.728242   -18.425051
H  3658416.137874 9136266.265150   319.450885
H  -3658520.151323 9137286.837556   -27.008034
3
Frame 458, ANI=0.000, GB=-119.889 kcal/mol
O      6.567597 -1153824.996796   -18.465369
H  3666421.423160 9156258.093784   320.149903
H  -3666525.664209 9157280.899390   -27.067132
3
Frame 459, ANI=0.000, GB=-119.889 kcal/mol
O      6.581936 -1156344.265350   -18.505686
H  3674426.708445 9176249.922418   320.848920
H  -3674531.177095 9177274.961224   -27.126231
3
Frame 460, ANI=0.000, GB=-119.889 kcal/mol
O      6.596276 -1158863.533904   -18.546003
H  3682431.993730 9196241.751051   321.547937
H  -3682536.689981 9197269.023058   -27.185329
3
Frame 461, ANI=0.000, GB=-119.889 kcal/mol
O      6.610616 -1161382.802458   -18.586321
H  3690437.279016 9216233.579685   322.246954
H  -3690542.202867 9217263.084892   -27.244428
3
Frame 462, ANI=0.000, GB=-119.889 kcal/mol
O      6.624956 -1163902.071011   -18.626638
H  3698442.564301 9236225.408319   322.945972
H  -3698547.715753 9237257.146726   -27.303526
3
Frame 463, ANI=0.000, GB=-119.889 kcal/mol
O      6.639295 -1166421.339565   -18.666956
H  3706447.849587 9256217.236953   323.644989
H  -3706553.228639 9257251.208560   -27.362625
3
Frame 464, ANI=0.000, GB=-119.889 kcal/mol
O      6.653635 -1168940.608119   -18.707273
H  3714453.134872 9276209.065587   324.344006
H  -3714558.741525 9277245.270394   -27.421723
3
Frame 465, ANI=0.000, GB=-119.889 kcal/mol
O      6.667975 -1171459.876673   -18.747590
H  3722458.420158 9296200.894221   325.043023
H  -3722564.254411 9297239.332228   -27.480822
3
Frame 466, ANI=0.000, GB=-119.889 kcal/mol
O      6.682314 -1173979.145226   -18.787908
H  3730463.705443 9316192.722855   325.742041
H  -3730569.767297 9317233.394062   -27.539921
3
Frame 467, ANI=0.000, GB=-119.889 kcal/mol
O      6.696654 -1176498.413780   -18.828225
H  3738468.990729 9336184.551489   326.441058
H  -3738575.280183 9337227.455896   -27.599019
3
Frame 468, ANI=0.000, GB=-119.889 kcal/mol
O      6.710994 -1179017.682334   -18.868543
H  3746474.276014 9356176.380123   327.140075
H  -3746580.793069 9357221.517730   -27.658118
3
Frame 469, ANI=0.000, GB=-119.889 kcal/mol
O      6.725334 -1181536.950888   -18.908860
H  3754479.561300 9376168.208757   327.839092
H  -3754586.305955 9377215.579564   -27.717216
3
Frame 470, ANI=0.000, GB=-119.889 kcal/mol
O      6.739673 -1184056.219441   -18.949177
H  3762484.846585 9396160.037391   328.538110
H  -3762591.818841 9397209.641398   -27.776315
3
Frame 471, ANI=0.000, GB=-119.889 kcal/mol
O      6.754013 -1186575.487995   -18.989495
H  3770490.131870 9416151.866025   329.237127
H  -3770597.331727 9417203.703232   -27.835413
3
Frame 472, ANI=0.000, GB=-119.889 kcal/mol
O      6.768353 -1189094.756549   -19.029812
H  3778495.417156 9436143.694659   329.936144
H  -3778602.844613 9437197.765066   -27.894512
3
Frame 473, ANI=0.000, GB=-119.889 kcal/mol
O      6.782693 -1191614.025103   -19.070130
H  3786500.702441 9456135.523293   330.635161
H  -3786608.357499 9457191.826900   -27.953610
3
Frame 474, ANI=0.000, GB=-119.889 kcal/mol
O      6.797032 -1194133.293656   -19.110447
H  3794505.987727 9476127.351927   331.334179
H  -3794613.870385 9477185.888734   -28.012709
3
Frame 475, ANI=0.000, GB=-119.889 kcal/mol
O      6.811372 -1196652.562210   -19.150764
H  3802511.273012 9496119.180561   332.033196
H  -3802619.383271 9497179.950568   -28.071807
3
Frame 476, ANI=0.000, GB=-119.889 kcal/mol
O      6.825712 -1199171.830764   -19.191082
H  3810516.558298 9516111.009195   332.732213
H  -3810624.896157 9517174.012402   -28.130906
3
Frame 477, ANI=0.000, GB=-119.889 kcal/mol
O      6.840051 -1201691.099318   -19.231399
H  3818521.843583 9536102.837829   333.431230
H  -3818630.409043 9537168.074236   -28.190004
3
Frame 478, ANI=0.000, GB=-119.889 kcal/mol
O      6.854391 -1204210.367872   -19.271717
H  3826527.128868 9556094.666463   334.130248
H  -3826635.921929 9557162.136070   -28.249103
3
Frame 479, ANI=0.000, GB=-119.889 kcal/mol
O      6.868731 -1206729.636425   -19.312034
H  3834532.414154 9576086.495097   334.829265
H  -3834641.434815 9577156.197904   -28.308202
3
Frame 480, ANI=0.000, GB=-119.889 kcal/mol
O      6.883071 -1209248.904979   -19.352351
H  3842537.699439 9596078.323731   335.528282
H  -3842646.947700 9597150.259738   -28.367300
3
Frame 481, ANI=0.000, GB=-119.889 kcal/mol
O      6.897410 -1211768.173533   -19.392669
H  3850542.984725 9616070.152365   336.227299
H  -3850652.460586 9617144.321572   -28.426399
3
Frame 482, ANI=0.000, GB=-119.889 kcal/mol
O      6.911750 -1214287.442087   -19.432986
H  3858548.270010 9636061.980999   336.926317
H  -3858657.973472 9637138.383406   -28.485497
3
Frame 483, ANI=0.000, GB=-119.889 kcal/mol
O      6.926090 -1216806.710640   -19.473304
H  3866553.555295 9656053.809633   337.625334
H  -3866663.486358 9657132.445240   -28.544596
3
Frame 484, ANI=0.000, GB=-119.889 kcal/mol
O      6.940430 -1219325.979194   -19.513621
H  3874558.840581 9676045.638267   338.324351
H  -3874668.999244 9677126.507074   -28.603694
3
Frame 485, ANI=0.000, GB=-119.889 kcal/mol
O      6.954769 -1221845.247748   -19.553938
H  3882564.125866 9696037.466901   339.023368
H  -3882674.512130 9697120.568908   -28.662793
3
Frame 486, ANI=0.000, GB=-119.889 kcal/mol
O      6.969109 -1224364.516302   -19.594256
H  3890569.411152 9716029.295535   339.722386
H  -3890680.025016 9717114.630742   -28.721891
3
Frame 487, ANI=0.000, GB=-119.889 kcal/mol
O      6.983449 -1226883.784855   -19.634573
H  3898574.696437 9736021.124169   340.421403
H  -3898685.537902 9737108.692576   -28.780990
3
Frame 488, ANI=0.000, GB=-119.889 kcal/mol
O      6.997788 -1229403.053409   -19.674891
H  3906579.981722 9756012.952803   341.120420
H  -3906691.050788 9757102.754410   -28.840088
3
Frame 489, ANI=0.000, GB=-119.889 kcal/mol
O      7.012128 -1231922.321963   -19.715208
H  3914585.267008 9776004.781437   341.819437
H  -3914696.563674 9777096.816244   -28.899187
3
Frame 490, ANI=0.000, GB=-119.889 kcal/mol
O      7.026468 -1234441.590517   -19.755525
H  3922590.552293 9795996.610071   342.518455
H  -3922702.076560 9797090.878078   -28.958286
3
Frame 491, ANI=0.000, GB=-119.889 kcal/mol
O      7.040808 -1236960.859071   -19.795843
H  3930595.837578 9815988.438705   343.217472
H  -3930707.589446 9817084.939912   -29.017384
3
Frame 492, ANI=0.000, GB=-119.889 kcal/mol
O      7.055147 -1239480.127624   -19.836160
H  3938601.122864 9835980.267339   343.916489
H  -3938713.102332 9837079.001746   -29.076483
3
Frame 493, ANI=0.000, GB=-119.889 kcal/mol
O      7.069487 -1241999.396178   -19.876478
H  3946606.408149 9855972.095973   344.615506
H  -3946718.615217 9857073.063580   -29.135581
3
Frame 494, ANI=0.000, GB=-119.889 kcal/mol
O      7.083827 -1244518.664732   -19.916795
H  3954611.693435 9875963.924607   345.314524
H  -3954724.128103 9877067.125414   -29.194680
3
Frame 495, ANI=0.000, GB=-119.889 kcal/mol
O      7.098167 -1247037.933286   -19.957112
H  3962616.978720 9895955.753241   346.013541
H  -3962729.640989 9897061.187248   -29.253778
3
Frame 496, ANI=0.000, GB=-119.889 kcal/mol
O      7.112506 -1249557.201839   -19.997430
H  3970622.264005 9915947.581875   346.712558
H  -3970735.153875 9917055.249082   -29.312877
3
Frame 497, ANI=0.000, GB=-119.889 kcal/mol
O      7.126846 -1252076.470393   -20.037747
H  3978627.549291 9935939.410510   347.411575
H  -3978740.666761 9937049.310916   -29.371975
3
Frame 498, ANI=0.000, GB=-119.889 kcal/mol
O      7.141186 -1254595.738947   -20.078065
H  3986632.834576 9955931.239144   348.110593
H  -3986746.179647 9957043.372751   -29.431074
3
Frame 499, ANI=0.000, GB=-119.889 kcal/mol
O      7.155526 -1257115.007501   -20.118382
H  3994638.119861 9975923.067778   348.809610
H  -3994751.692533 9977037.434585   -29.490172
3
Frame 500, ANI=0.000, GB=0.000 kcal/mol
O      7.169865 -1259634.276055   -20.158699
H  4002643.405147 9995914.896412   349.508627
H  -4002757.205419 9997031.496419   -29.549271
