2
Frame 0 energy=-0.1803901642560959 step=0 energy_unit=Ha max_force=0.20690913498401642 rms_force=0.11945904791355133
H       0.00000e+00     0.00000e+00     0.00000e+00
H       1.20000e+00     0.00000e+00     0.00000e+00
2
Frame 1 energy=-0.17936116456985474 step=1 energy_unit=Ha max_force=0.20615121722221375 rms_force=0.11902152746915817
H      -1.17984e-03     4.20409e-03     5.44779e-03
H       1.20380e+00     2.97902e-03     5.28454e-03
2
Frame 2 energy=-0.17651663720607758 step=2 energy_unit=Ha max_force=0.20381340384483337 rms_force=0.11767181754112244
H      -7.14553e-03     7.00927e-03     9.44431e-03
H       1.21171e+00     5.49804e-03     9.24292e-03
2
Frame 3 energy=-0.17274737358093262 step=3 energy_unit=Ha max_force=0.20046867430210114 rms_force=0.11574074625968933
H      -1.56546e-02     9.30852e-03     1.27865e-02
H       1.22185e+00     7.66040e-03     1.25669e-02
2
Frame 3 energy=-0.17274737358093262 step=3 energy_unit=Ha max_force=0.20046867430210114 rms_force=0.11574074625968933
H      -1.56546e-02     9.30852e-03     1.27865e-02
H       1.22185e+00     7.66040e-03     1.25669e-02
