6
Frame 0 energy=-0.7880483865737915 step=0 energy_unit=Ha max_force=0.09607601165771484 rms_force=0.04248505085706711
F      -2.20000e+00     0.00000e+00     0.00000e+00
C       0.00000e+00     0.00000e+00     0.00000e+00
H       0.00000e+00     1.09000e+00     0.00000e+00
H       9.42800e-01    -5.45000e-01     0.00000e+00
H      -9.42800e-01    -5.45000e-01     0.00000e+00
Cl      2.20000e+00     0.00000e+00     0.00000e+00
6
Frame 1 energy=-0.7940896153450012 step=1 energy_unit=Ha max_force=0.06693054735660553 rms_force=0.02804723009467125
F      -2.18852e+00    -5.36420e-03     0.00000e+00
C       6.28875e-03     2.90841e-02     0.00000e+00
H      -1.77819e-03     1.08585e+00     0.00000e+00
H       9.41273e-01    -5.68070e-01     0.00000e+00
H      -9.68752e-01    -5.49868e-01     0.00000e+00
Cl      2.21148e+00     8.36265e-03     0.00000e+00
6
Frame 2 energy=-0.7990822196006775 step=2 energy_unit=Ha max_force=0.049994926899671555 rms_force=0.023536890745162964
F      -2.17512e+00    -1.57860e-02     0.00000e+00
C       2.21854e-02     3.27334e-02     0.00000e+00
H      -5.10052e-03     1.10336e+00     0.00000e+00
H       9.31996e-01    -5.96537e-01     0.00000e+00
H      -9.98706e-01    -5.44651e-01     0.00000e+00
Cl      2.22474e+00     2.08805e-02     0.00000e+00
6
Frame 3 energy=-0.8040952086448669 step=3 energy_unit=Ha max_force=0.04297706484794617 rms_force=0.023168964311480522
F      -2.16566e+00    -3.18335e-02     0.00000e+00
C       4.57165e-02     4.05590e-02     0.00000e+00
H      -7.45677e-03     1.11054e+00     0.00000e+00
H       9.22580e-01    -6.28385e-01     0.00000e+00
H      -1.02890e+00    -5.26580e-01     0.00000e+00
Cl      2.23372e+00     3.56948e-02     0.00000e+00
6
Frame 3 energy=-0.8040952086448669 step=3 energy_unit=Ha max_force=0.04297706484794617 rms_force=0.023168964311480522
F      -2.16566e+00    -3.18335e-02     0.00000e+00
C       4.57165e-02     4.05590e-02     0.00000e+00
H      -7.45677e-03     1.11054e+00     0.00000e+00
H       9.22580e-01    -6.28385e-01     0.00000e+00
H      -1.02890e+00    -5.26580e-01     0.00000e+00
Cl      2.23372e+00     3.56948e-02     0.00000e+00
