3
Frame 0, Time = 0.0000 ps, T = 0.0 K, E = -59.376922 kcal/mol
O      0.000000    -0.000001     0.000000
H      0.757003     0.586009     0.000000
H     -0.757003     0.586009     0.000000
3
Frame 1, Time = 0.0010 ps, T = 3.5 K, E = -59.376922 kcal/mol
O      0.000000    -0.000130     0.000000
H      0.757310     0.587031     0.000000
H     -0.757310     0.587031     0.000000
3
Frame 2, Time = 0.0020 ps, T = 12.7 K, E = -59.376921 kcal/mol
O      0.000000    -0.000474     0.000000
H      0.758131     0.589762     0.000000
H     -0.758131     0.589762     0.000000
3
Frame 3, Time = 0.0030 ps, T = 27.7 K, E = -59.376921 kcal/mol
O      0.000000    -0.001034     0.000000
H      0.759469     0.594209     0.000000
H     -0.759469     0.594209     0.000000
3
Frame 4, Time = 0.0040 ps, T = 48.8 K, E = -59.376921 kcal/mol
O      0.000000    -0.001813     0.000000
H      0.761327     0.600386     0.000000
H     -0.761327     0.600386     0.000000
3
Frame 5, Time = 0.0050 ps, T = 76.3 K, E = -59.376920 kcal/mol
O      0.000000    -0.002811     0.000000
H      0.763713     0.608311     0.000000
H     -0.763713     0.608311     0.000000
3
Frame 6, Time = 0.0060 ps, T = 110.4 K, E = -59.376919 kcal/mol
O      0.000000    -0.004033     0.000000
H      0.766634     0.618009     0.000000
H     -0.766634     0.618009     0.000000
3
Frame 7, Time = 0.0070 ps, T = 151.5 K, E = -59.376918 kcal/mol
O      0.000000    -0.005482     0.000000
H      0.770100     0.629507     0.000000
H     -0.770100     0.629507     0.000000
3
Frame 8, Time = 0.0080 ps, T = 200.2 K, E = -59.376917 kcal/mol
O      0.000000    -0.007162     0.000000
H      0.774123     0.642841     0.000000
H     -0.774123     0.642841     0.000000
3
Frame 9, Time = 0.0090 ps, T = 256.9 K, E = -59.376916 kcal/mol
O      0.000000    -0.009079     0.000000
H      0.778714     0.658049     0.000000
H     -0.778714     0.658049     0.000000
3
Frame 10, Time = 0.0100 ps, T = 322.4 K, E = -59.376915 kcal/mol
O     -0.000000    -0.011237     0.000000
H      0.783889     0.675175     0.000000
H     -0.783889     0.675175     0.000000
3
Frame 11, Time = 0.0110 ps, T = 397.4 K, E = -59.376913 kcal/mol
O     -0.000000    -0.013643     0.000000
H      0.789662     0.694268     0.000000
H     -0.789662     0.694268     0.000000
3
Frame 12, Time = 0.0120 ps, T = 482.6 K, E = -59.376912 kcal/mol
O     -0.000000    -0.016303     0.000000
H      0.796052     0.715382     0.000000
H     -0.796052     0.715382     0.000000
3
Frame 13, Time = 0.0130 ps, T = 578.9 K, E = -59.376910 kcal/mol
O     -0.000000    -0.019225     0.000000
H      0.803076     0.738572     0.000000
H     -0.803076     0.738572     0.000000
3
Frame 14, Time = 0.0140 ps, T = 687.3 K, E = -59.376908 kcal/mol
O     -0.000000    -0.022417     0.000000
H      0.810754     0.763902     0.000000
H     -0.810754     0.763902     0.000000
3
Frame 15, Time = 0.0150 ps, T = 808.7 K, E = -59.376906 kcal/mol
O     -0.000000    -0.025887     0.000000
H      0.819105     0.791438     0.000000
H     -0.819105     0.791438     0.000000
3
Frame 16, Time = 0.0160 ps, T = 944.4 K, E = -59.376904 kcal/mol
O     -0.000000    -0.029643     0.000000
H      0.828151     0.821247     0.000000
H     -0.828151     0.821247     0.000000
3
Frame 17, Time = 0.0170 ps, T = 1095.4 K, E = -59.376902 kcal/mol
O     -0.000000    -0.033695     0.000000
H      0.837914     0.853402     0.000000
H     -0.837914     0.853402     0.000000
3
Frame 18, Time = 0.0180 ps, T = 1263.0 K, E = -59.376900 kcal/mol
O     -0.000000    -0.038052     0.000000
H      0.848415     0.887978     0.000000
H     -0.848415     0.887978     0.000000
3
Frame 19, Time = 0.0190 ps, T = 1448.3 K, E = -59.376898 kcal/mol
O     -0.000000    -0.042723     0.000000
H      0.859679     0.925052     0.000000
H     -0.859679     0.925052     0.000000
3
Frame 20, Time = 0.0200 ps, T = 1652.6 K, E = -59.376896 kcal/mol
O     -0.000000    -0.047719     0.000000
H      0.871728     0.964702     0.000000
H     -0.871728     0.964702     0.000000
3
Frame 21, Time = 0.0210 ps, T = 1877.2 K, E = -59.376894 kcal/mol
O     -0.000000    -0.053050     0.000000
H      0.884586     1.007007     0.000000
H     -0.884586     1.007007     0.000000
3
Frame 22, Time = 0.0220 ps, T = 2123.4 K, E = -59.376892 kcal/mol
O     -0.000000    -0.058725     0.000000
H      0.898277     1.052046     0.000000
H     -0.898277     1.052046     0.000000
3
Frame 23, Time = 0.0230 ps, T = 2392.3 K, E = -59.376890 kcal/mol
O     -0.000000    -0.064755     0.000000
H      0.912825     1.099899     0.000000
H     -0.912825     1.099899     0.000000
3
Frame 24, Time = 0.0240 ps, T = 2685.3 K, E = -59.376888 kcal/mol
O     -0.000000    -0.071149     0.000000
H      0.928255     1.150642     0.000000
H     -0.928255     1.150642     0.000000
3
Frame 25, Time = 0.0250 ps, T = 3003.3 K, E = -59.376886 kcal/mol
O     -0.000000    -0.077917     0.000000
H      0.944591     1.204353     0.000000
H     -0.944591     1.204353     0.000000
3
Frame 26, Time = 0.0260 ps, T = 3347.6 K, E = -59.376885 kcal/mol
O     -0.000000    -0.085068     0.000000
H      0.961859     1.261104     0.000000
H     -0.961859     1.261104     0.000000
3
Frame 27, Time = 0.0270 ps, T = 3719.0 K, E = -59.376884 kcal/mol
O     -0.000000    -0.092612     0.000000
H      0.980086     1.320966     0.000000
H     -0.980086     1.320966     0.000000
3
Frame 28, Time = 0.0280 ps, T = 4118.6 K, E = -59.376883 kcal/mol
O     -0.000000    -0.100555     0.000000
H      0.999299     1.384008     0.000000
H     -0.999299     1.384008     0.000000
3
Frame 29, Time = 0.0290 ps, T = 4547.0 K, E = -59.376882 kcal/mol
O     -0.000000    -0.108907     0.000000
H      1.019525     1.450291     0.000000
H     -1.019525     1.450291     0.000000
3
Frame 30, Time = 0.0300 ps, T = 5005.2 K, E = -59.376881 kcal/mol
O     -0.000000    -0.117676     0.000000
H      1.040795     1.519875     0.000000
H     -1.040795     1.519875     0.000000
3
Frame 31, Time = 0.0310 ps, T = 5493.7 K, E = -59.376881 kcal/mol
O     -0.000000    -0.126867     0.000000
H      1.063140     1.592815     0.000000
H     -1.063140     1.592815     0.000000
3
Frame 32, Time = 0.0320 ps, T = 6013.1 K, E = -59.376880 kcal/mol
O     -0.000000    -0.136487     0.000000
H      1.086595     1.669161     0.000000
H     -1.086595     1.669161     0.000000
3
Frame 33, Time = 0.0330 ps, T = 6564.1 K, E = -59.376880 kcal/mol
O     -0.000000    -0.146542     0.000000
H      1.111196     1.748960     0.000000
H     -1.111196     1.748960     0.000000
3
Frame 34, Time = 0.0340 ps, T = 7147.1 K, E = -59.376879 kcal/mol
O     -0.000000    -0.157038     0.000000
H      1.136983     1.832252     0.000000
H     -1.136983     1.832252     0.000000
3
Frame 35, Time = 0.0350 ps, T = 7762.8 K, E = -59.376878 kcal/mol
O     -0.000000    -0.167978     0.000000
H      1.163999     1.919076     0.000000
H     -1.163999     1.919076     0.000000
3
Frame 36, Time = 0.0360 ps, T = 8411.7 K, E = -59.376877 kcal/mol
O     -0.000000    -0.179368     0.000000
H      1.192292     2.009465     0.000000
H     -1.192292     2.009465     0.000000
3
Frame 37, Time = 0.0370 ps, T = 9067.7 K, E = -60.537802 kcal/mol
O     -0.000000    -0.191213     0.000000
H      1.221650     2.103468     0.000000
H     -1.221650     2.103468     0.000000
3
Frame 38, Time = 0.0380 ps, T = 9729.2 K, E = -65.193648 kcal/mol
O     -0.000000    -0.203522     0.000000
H      1.251450     2.201150     0.000000
H     -1.251450     2.201150     0.000000
3
Frame 39, Time = 0.0390 ps, T = 10120.1 K, E = -65.193649 kcal/mol
O     -0.000000    -0.216196     0.000000
H      1.281235     2.301734     0.000000
H     -1.281235     2.301734     0.000000
3
Frame 40, Time = 0.0400 ps, T = 10497.7 K, E = -65.193649 kcal/mol
O     -0.000000    -0.229145     0.000000
H      1.310631     2.404495     0.000000
H     -1.310631     2.404495     0.000000
3
Frame 41, Time = 0.0410 ps, T = 10861.6 K, E = -65.193649 kcal/mol
O     -0.000000    -0.242354     0.000000
H      1.339605     2.509324     0.000000
H     -1.339605     2.509324     0.000000
3
Frame 42, Time = 0.0420 ps, T = 11211.4 K, E = -65.193648 kcal/mol
O     -0.000000    -0.255811     0.000000
H      1.368127     2.616115     0.000000
H     -1.368127     2.616115     0.000000
3
Frame 43, Time = 0.0430 ps, T = 11547.0 K, E = -65.193647 kcal/mol
O     -0.000000    -0.269501     0.000000
H      1.396171     2.724766     0.000000
H     -1.396171     2.724766     0.000000
3
Frame 44, Time = 0.0440 ps, T = 11868.5 K, E = -65.193646 kcal/mol
O     -0.000000    -0.283414     0.000000
H      1.423712     2.835177     0.000000
H     -1.423712     2.835177     0.000000
3
Frame 45, Time = 0.0450 ps, T = 12176.1 K, E = -65.193645 kcal/mol
O     -0.000000    -0.297537     0.000000
H      1.450729     2.947256     0.000000
H     -1.450729     2.947256     0.000000
3
Frame 46, Time = 0.0460 ps, T = 12469.9 K, E = -65.193643 kcal/mol
O     -0.000000    -0.311859     0.000000
H      1.477202     3.060913     0.000000
H     -1.477202     3.060913     0.000000
3
Frame 47, Time = 0.0470 ps, T = 12750.5 K, E = -65.193642 kcal/mol
O     -0.000000    -0.326368     0.000000
H      1.503115     3.176063     0.000000
H     -1.503115     3.176063     0.000000
3
Frame 48, Time = 0.0480 ps, T = 13018.2 K, E = -65.193640 kcal/mol
O     -0.000000    -0.341056     0.000000
H      1.528452     3.292626     0.000000
H     -1.528452     3.292626     0.000000
3
Frame 49, Time = 0.0490 ps, T = 13273.5 K, E = -65.193639 kcal/mol
O     -0.000000    -0.355913     0.000000
H      1.553200     3.410526     0.000000
H     -1.553200     3.410526     0.000000
3
Frame 50, Time = 0.0500 ps, T = 13516.8 K, E = -65.193637 kcal/mol
O     -0.000000    -0.370928     0.000000
H      1.577349     3.529691     0.000000
H     -1.577349     3.529691     0.000000
3
Frame 51, Time = 0.0510 ps, T = 13748.7 K, E = -65.193635 kcal/mol
O     -0.000000    -0.386095     0.000000
H      1.600888     3.650053     0.000000
H     -1.600888     3.650053     0.000000
3
Frame 52, Time = 0.0520 ps, T = 13969.8 K, E = -65.193634 kcal/mol
O     -0.000000    -0.401404     0.000000
H      1.623809     3.771550     0.000000
H     -1.623809     3.771550     0.000000
3
Frame 53, Time = 0.0530 ps, T = 14180.5 K, E = -65.193632 kcal/mol
O     -0.000000    -0.416849     0.000000
H      1.646105     3.894121     0.000000
H     -1.646105     3.894121     0.000000
3
Frame 54, Time = 0.0540 ps, T = 14381.4 K, E = -65.193631 kcal/mol
O     -0.000000    -0.432423     0.000000
H      1.667772     4.017711     0.000000
H     -1.667772     4.017711     0.000000
3
Frame 55, Time = 0.0550 ps, T = 14573.1 K, E = -65.193629 kcal/mol
O     -0.000000    -0.448118     0.000000
H      1.688803     4.142266     0.000000
H     -1.688803     4.142266     0.000000
3
Frame 56, Time = 0.0560 ps, T = 14755.9 K, E = -65.193628 kcal/mol
O     -0.000000    -0.463928     0.000000
H      1.709196     4.267738     0.000000
H     -1.709196     4.267738     0.000000
3
Frame 57, Time = 0.0570 ps, T = 14930.5 K, E = -65.193626 kcal/mol
O     -0.000000    -0.479848     0.000000
H      1.728947     4.394081     0.000000
H     -1.728947     4.394081     0.000000
3
Frame 58, Time = 0.0580 ps, T = 15097.2 K, E = -65.193625 kcal/mol
O     -0.000000    -0.495873     0.000000
H      1.748053     4.521250     0.000000
H     -1.748053     4.521250     0.000000
3
Frame 59, Time = 0.0590 ps, T = 15256.6 K, E = -65.193624 kcal/mol
O     -0.000000    -0.511996     0.000000
H      1.766515     4.649207     0.000000
H     -1.766515     4.649207     0.000000
3
Frame 60, Time = 0.0600 ps, T = 15409.1 K, E = -65.193623 kcal/mol
O     -0.000000    -0.528214     0.000000
H      1.784329     4.777911     0.000000
H     -1.784329     4.777911     0.000000
3
Frame 61, Time = 0.0610 ps, T = 15555.1 K, E = -65.193622 kcal/mol
O     -0.000000    -0.544522     0.000000
H      1.801496     4.907329     0.000000
H     -1.801496     4.907329     0.000000
3
Frame 62, Time = 0.0620 ps, T = 15694.9 K, E = -65.193621 kcal/mol
O     -0.000000    -0.560915     0.000000
H      1.818015     5.037426     0.000000
H     -1.818015     5.037426     0.000000
3
Frame 63, Time = 0.0630 ps, T = 15828.9 K, E = -65.193620 kcal/mol
O     -0.000000    -0.577390     0.000000
H      1.833887     5.168172     0.000000
H     -1.833887     5.168172     0.000000
3
Frame 64, Time = 0.0640 ps, T = 15957.6 K, E = -65.193619 kcal/mol
O     -0.000000    -0.593943     0.000000
H      1.849110     5.299536     0.000000
H     -1.849110     5.299536     0.000000
3
Frame 65, Time = 0.0650 ps, T = 16081.1 K, E = -65.193618 kcal/mol
O     -0.000000    -0.610570     0.000000
H      1.863686     5.431491     0.000000
H     -1.863686     5.431491     0.000000
3
Frame 66, Time = 0.0660 ps, T = 16199.9 K, E = -65.193617 kcal/mol
O     -0.000000    -0.627269     0.000000
H      1.877615     5.564012     0.000000
H     -1.877615     5.564012     0.000000
3
Frame 67, Time = 0.0670 ps, T = 16314.2 K, E = -65.193617 kcal/mol
O     -0.000000    -0.644035     0.000000
H      1.890898     5.697073     0.000000
H     -1.890898     5.697073     0.000000
3
Frame 68, Time = 0.0680 ps, T = 16424.2 K, E = -65.193616 kcal/mol
O     -0.000000    -0.660867     0.000000
H      1.903535     5.830651     0.000000
H     -1.903535     5.830651     0.000000
3
Frame 69, Time = 0.0690 ps, T = 16530.2 K, E = -65.193615 kcal/mol
O     -0.000000    -0.677762     0.000000
H      1.915527     5.964726     0.000000
H     -1.915527     5.964726     0.000000
3
Frame 70, Time = 0.0700 ps, T = 16632.5 K, E = -65.193615 kcal/mol
O     -0.000000    -0.694716     0.000000
H      1.926874     6.099277     0.000000
H     -1.926874     6.099277     0.000000
3
Frame 71, Time = 0.0710 ps, T = 16731.3 K, E = -65.193614 kcal/mol
O     -0.000000    -0.711728     0.000000
H      1.937578     6.234284     0.000000
H     -1.937578     6.234284     0.000000
3
Frame 72, Time = 0.0720 ps, T = 16826.8 K, E = -65.193614 kcal/mol
O     -0.000000    -0.728796     0.000000
H      1.947639     6.369730     0.000000
H     -1.947639     6.369730     0.000000
3
Frame 73, Time = 0.0730 ps, T = 16919.2 K, E = -65.193613 kcal/mol
O     -0.000000    -0.745916     0.000000
H      1.957057     6.505597     0.000000
H     -1.957057     6.505597     0.000000
3
Frame 74, Time = 0.0740 ps, T = 17008.6 K, E = -65.193613 kcal/mol
O     -0.000000    -0.763087     0.000000
H      1.965833     6.641869     0.000000
H     -1.965833     6.641869     0.000000
3
Frame 75, Time = 0.0750 ps, T = 17095.3 K, E = -65.193612 kcal/mol
O     -0.000000    -0.780308     0.000000
H      1.973967     6.778530     0.000000
H     -1.973967     6.778530     0.000000
3
Frame 76, Time = 0.0760 ps, T = 17179.4 K, E = -65.193612 kcal/mol
O     -0.000000    -0.797575     0.000000
H      1.981459     6.915567     0.000000
H     -1.981459     6.915567     0.000000
3
Frame 77, Time = 0.0770 ps, T = 17261.0 K, E = -65.193611 kcal/mol
O     -0.000000    -0.814889     0.000000
H      1.988310     7.052966     0.000000
H     -1.988310     7.052966     0.000000
3
Frame 78, Time = 0.0780 ps, T = 17340.4 K, E = -65.193611 kcal/mol
O     -0.000000    -0.832246     0.000000
H      1.994518     7.190713     0.000000
H     -1.994518     7.190713     0.000000
3
Frame 79, Time = 0.0790 ps, T = 17417.6 K, E = -65.193611 kcal/mol
O     -0.000000    -0.849645     0.000000
H      2.000085     7.328796     0.000000
H     -2.000085     7.328796     0.000000
3
Frame 80, Time = 0.0800 ps, T = 17492.8 K, E = -65.193610 kcal/mol
O     -0.000000    -0.867086     0.000000
H      2.005009     7.467203     0.000000
H     -2.005009     7.467203     0.000000
3
Frame 81, Time = 0.0810 ps, T = 17566.0 K, E = -65.193610 kcal/mol
O     -0.000000    -0.884566     0.000000
H      2.009289     7.605924     0.000000
H     -2.009289     7.605924     0.000000
3
Frame 82, Time = 0.0820 ps, T = 17637.5 K, E = -65.193610 kcal/mol
O     -0.000000    -0.902084     0.000000
H      2.012925     7.744947     0.000000
H     -2.012925     7.744947     0.000000
3
Frame 83, Time = 0.0830 ps, T = 17707.3 K, E = -65.193610 kcal/mol
O     -0.000000    -0.919639     0.000000
H      2.015916     7.884263     0.000000
H     -2.015916     7.884263     0.000000
3
Frame 84, Time = 0.0840 ps, T = 17775.6 K, E = -65.193609 kcal/mol
O     -0.000000    -0.937229     0.000000
H      2.018259     8.023861     0.000000
H     -2.018259     8.023861     0.000000
3
Frame 85, Time = 0.0850 ps, T = 17842.4 K, E = -65.193609 kcal/mol
O     -0.000000    -0.954854     0.000000
H      2.019955     8.163734     0.000000
H     -2.019955     8.163734     0.000000
3
Frame 86, Time = 0.0860 ps, T = 17907.8 K, E = -65.193609 kcal/mol
O     -0.000000    -0.972513     0.000000
H      2.021000     8.303871     0.000000
H     -2.021000     8.303871     0.000000
3
Frame 87, Time = 0.0870 ps, T = 17971.9 K, E = -65.193609 kcal/mol
O     -0.000000    -0.990203     0.000000
H      2.021393     8.444265     0.000000
H     -2.021393     8.444265     0.000000
3
Frame 88, Time = 0.0880 ps, T = 18034.8 K, E = -65.193608 kcal/mol
O     -0.000000    -1.007925     0.000000
H      2.021131     8.584907     0.000000
H     -2.021131     8.584907     0.000000
3
Frame 89, Time = 0.0890 ps, T = 18096.7 K, E = -65.193608 kcal/mol
O     -0.000000    -1.025678     0.000000
H      2.020211     8.725790     0.000000
H     -2.020211     8.725790     0.000000
3
Frame 90, Time = 0.0900 ps, T = 18157.5 K, E = -65.193608 kcal/mol
O     -0.000000    -1.043460     0.000000
H      2.018632     8.866908     0.000000
H     -2.018632     8.866908     0.000000
3
Frame 91, Time = 0.0910 ps, T = 18217.4 K, E = -65.193608 kcal/mol
O     -0.000000    -1.061270     0.000000
H      2.016389     9.008251     0.000000
H     -2.016389     9.008251     0.000000
3
Frame 92, Time = 0.0920 ps, T = 18276.4 K, E = -65.193608 kcal/mol
O     -0.000000    -1.079108     0.000000
H      2.013478     9.149815     0.000000
H     -2.013478     9.149815     0.000000
3
Frame 93, Time = 0.0930 ps, T = 18334.6 K, E = -65.193607 kcal/mol
O     -0.000000    -1.096973     0.000000
H      2.009897     9.291593     0.000000
H     -2.009897     9.291593     0.000000
3
Frame 94, Time = 0.0940 ps, T = 18392.2 K, E = -65.193607 kcal/mol
O     -0.000000    -1.114865     0.000000
H      2.005640     9.433578     0.000000
H     -2.005640     9.433578     0.000000
3
Frame 95, Time = 0.0950 ps, T = 18449.1 K, E = -65.193607 kcal/mol
O     -0.000000    -1.132781     0.000000
H      2.000703     9.575765     0.000000
H     -2.000703     9.575765     0.000000
3
Frame 96, Time = 0.0960 ps, T = 18505.5 K, E = -65.193607 kcal/mol
O     -0.000000    -1.150723     0.000000
H      1.995081     9.718148     0.000000
H     -1.995081     9.718148     0.000000
3
Frame 97, Time = 0.0970 ps, T = 18561.3 K, E = -65.193607 kcal/mol
O     -0.000000    -1.168688     0.000000
H      1.988769     9.860722     0.000000
H     -1.988769     9.860722     0.000000
3
Frame 98, Time = 0.0980 ps, T = 18616.8 K, E = -65.193606 kcal/mol
O     -0.000000    -1.186677     0.000000
H      1.981760    10.003481     0.000000
H     -1.981760    10.003481     0.000000
3
Frame 99, Time = 0.0990 ps, T = 18671.9 K, E = -65.193606 kcal/mol
O     -0.000000    -1.204688     0.000000
H      1.974049    10.146420     0.000000
H     -1.974049    10.146420     0.000000
