3
Step 0, Time 0.000 ps, Energy -54.145 kcal/mol
O      0.000000     0.000000     0.000000
H      0.757000     0.586000     0.000000
H     -0.757000     0.586000     0.000000
3
Step 1, Time 0.001 ps, Energy -119.886 kcal/mol
O     -0.098675 -2519.213152     0.087495
H   8006.979182 19993.153461    -0.462762
H  -8005.413012 19993.029674    -0.925954
3
Step 2, Time 0.002 ps, Energy -119.888 kcal/mol
O     -0.197350 -5038.426428     0.174989
H  16013.200558 39985.721898    -0.925524
H  -16010.068217 39985.474325    -1.851908
3
Step 3, Time 0.002 ps, Energy -119.888 kcal/mol
O     -0.296025 -7557.639734     0.262484
H  24019.421732 59978.290579    -1.388286
H  -24014.723221 59977.919219    -2.777862
3
Step 4, Time 0.003 ps, Energy -119.888 kcal/mol
O     -0.394700 -10076.853054     0.349978
H  32025.642817 79970.859369    -1.851048
H  -32019.378135 79970.364223    -3.703816
3
Step 5, Time 0.003 ps, Energy -119.889 kcal/mol
O     -0.493375 -12596.066381     0.437473
H  40031.863851 99963.428220    -2.313810
H  -40024.032998 99962.809287    -4.629770
3
Step 6, Time 0.004 ps, Energy -119.889 kcal/mol
O     -0.592049 -15115.279714     0.524967
H  48038.084853 119955.997110    -2.776572
H  -48028.687829 119955.254390    -5.555724
3
Step 7, Time 0.004 ps, Energy -119.889 kcal/mol
O     -0.690724 -17634.493049     0.612462
H  56044.305832 139948.566027    -3.239334
H  -56033.342638 139947.699521    -6.481678
3
Step 8, Time 0.004 ps, Energy -119.889 kcal/mol
O     -0.789399 -20153.706388     0.699957
H  64050.526795 159941.134964    -3.702096
H  -64037.997431 159940.144671    -7.407633
3
Step 9, Time 0.005 ps, Energy -119.889 kcal/mol
O     -0.888074 -22672.919728     0.787451
H  72056.747745 179933.703917    -4.164858
H  -72042.652210 179932.589837    -8.333587
3
Step 10, Time 0.005 ps, Energy -119.889 kcal/mol
O     -0.986749 -25192.133070     0.874946
H  80062.968686 199926.272881    -4.627620
H  -80047.306980 199925.035015    -9.259541
3
Step 11, Time 0.006 ps, Energy -119.889 kcal/mol
O     -1.085424 -27711.346413     0.962440
H  88069.189618 219918.841855    -5.090383
H  -88051.961742 219917.480202   -10.185495
3
Step 12, Time 0.006 ps, Energy -119.889 kcal/mol
O     -1.184099 -30230.559757     1.049935
H  96075.410544 239911.410837    -5.553145
H  -96056.616497 239909.925398   -11.111449
3
Step 13, Time 0.007 ps, Energy -119.889 kcal/mol
O     -1.282774 -32749.773102     1.137430
H  104081.631464 259903.979826    -6.015907
H  -104061.271246 259902.370600   -12.037403
3
Step 14, Time 0.007 ps, Energy -119.889 kcal/mol
O     -1.381449 -35268.986447     1.224924
H  112087.852379 279896.548821    -6.478669
H  -112065.925991 279894.815808   -12.963357
3
Step 15, Time 0.008 ps, Energy -119.889 kcal/mol
O     -1.480124 -37788.199794     1.312419
H  120094.073290 299889.117821    -6.941431
H  -120070.580732 299887.261021   -13.889311
3
Step 16, Time 0.009 ps, Energy -119.889 kcal/mol
O     -1.578799 -40307.413140     1.399913
H  128100.294198 319881.686825    -7.404193
H  -128075.235469 319879.706239   -14.815265
3
Step 17, Time 0.009 ps, Energy -119.889 kcal/mol
O     -1.677474 -42826.626488     1.487408
H  136106.515102 339874.255833    -7.866955
H  -136079.890202 339872.151460   -15.741219
3
Step 18, Time 0.009 ps, Energy -119.889 kcal/mol
O     -1.776148 -45345.839835     1.574903
H  144112.736004 359866.824844    -8.329717
H  -144084.544933 359864.596685   -16.667173
3
Step 19, Time 0.010 ps, Energy -119.889 kcal/mol
O     -1.874823 -47865.053183     1.662397
H  152118.956903 379859.393858    -8.792479
H  -152089.199662 379857.041912   -17.593127
3
Step 20, Time 0.011 ps, Energy -119.889 kcal/mol
O     -1.973498 -50384.266532     1.749892
H  160125.177800 399851.962875    -9.255241
H  -160093.854388 399849.487143   -18.519081
3
Step 21, Time 0.011 ps, Energy -119.889 kcal/mol
O     -2.072173 -52903.479880     1.837386
H  168131.398694 419844.531895    -9.718003
H  -168098.509113 419841.932375   -19.445035
3
Step 22, Time 0.011 ps, Energy -119.889 kcal/mol
O     -2.170848 -55422.693230     1.924881
H  176137.619588 439837.100916   -10.180765
H  -176103.163835 439834.377610   -20.370989
3
Step 23, Time 0.012 ps, Energy -119.889 kcal/mol
O     -2.269523 -57941.906579     2.012375
H  184143.840479 459829.669940   -10.643527
H  -184107.818556 459826.822847   -21.296944
3
Step 24, Time 0.013 ps, Energy -119.889 kcal/mol
O     -2.368198 -60461.119928     2.099870
H  192150.061369 479822.238965   -11.106289
H  -192112.473275 479819.268086   -22.222898
3
Step 25, Time 0.013 ps, Energy -119.889 kcal/mol
O     -2.466873 -62980.333278     2.187365
H  200156.282257 499814.807993   -11.569051
H  -200117.127993 499811.713327   -23.148852
3
Step 26, Time 0.013 ps, Energy -119.889 kcal/mol
O     -2.565548 -65499.546628     2.274859
H  208162.503144 519807.377021   -12.031814
H  -208121.782709 519804.158569   -24.074806
3
Step 27, Time 0.014 ps, Energy -119.889 kcal/mol
O     -2.664223 -68018.759978     2.362354
H  216168.724030 539799.946052   -12.494576
H  -216126.437425 539796.603813   -25.000760
3
Step 28, Time 0.015 ps, Energy -119.889 kcal/mol
O     -2.762898 -70537.973328     2.449848
H  224174.944915 559792.515083   -12.957338
H  -224131.092139 559789.049058   -25.926714
3
Step 29, Time 0.015 ps, Energy -119.889 kcal/mol
O     -2.861572 -73057.186679     2.537343
H  232181.165799 579785.084116   -13.420100
H  -232135.746852 579781.494304   -26.852668
3
Step 30, Time 0.015 ps, Energy -119.889 kcal/mol
O     -2.960247 -75576.400029     2.624838
H  240187.386682 599777.653150   -13.882862
H  -240140.401565 599773.939551   -27.778622
3
Step 31, Time 0.016 ps, Energy -119.889 kcal/mol
O     -3.058922 -78095.613380     2.712332
H  248193.607564 619770.222185   -14.345624
H  -248145.056276 619766.384799   -28.704576
3
Step 32, Time 0.017 ps, Energy -119.889 kcal/mol
O     -3.157597 -80614.826731     2.799827
H  256199.828445 639762.791221   -14.808386
H  -256149.710987 639758.830049   -29.630530
3
Step 33, Time 0.017 ps, Energy -119.889 kcal/mol
O     -3.256272 -83134.040082     2.887321
H  264206.049325 659755.360258   -15.271148
H  -264154.365696 659751.275299   -30.556484
3
Step 34, Time 0.018 ps, Energy -119.889 kcal/mol
O     -3.354947 -85653.253433     2.974816
H  272212.270205 679747.929296   -15.733910
H  -272159.020405 679743.720551   -31.482438
3
Step 35, Time 0.018 ps, Energy -119.889 kcal/mol
O     -3.453622 -88172.466784     3.062310
H  280218.491084 699740.498335   -16.196672
H  -280163.675114 699736.165803   -32.408392
3
Step 36, Time 0.018 ps, Energy -119.889 kcal/mol
O     -3.552297 -90691.680135     3.149805
H  288224.711962 719733.067374   -16.659434
H  -288168.329821 719728.611056   -33.334346
3
Step 37, Time 0.019 ps, Energy -119.889 kcal/mol
O     -3.650972 -93210.893486     3.237300
H  296230.932840 739725.636414   -17.122196
H  -296172.984528 739721.056309   -34.260301
3
Step 38, Time 0.019 ps, Energy -119.889 kcal/mol
O     -3.749647 -95730.106838     3.324794
H  304237.153717 759718.205455   -17.584958
H  -304177.639235 759713.501564   -35.186255
3
Step 39, Time 0.020 ps, Energy -119.889 kcal/mol
O     -3.848322 -98249.320189     3.412289
H  312243.374593 779710.774497   -18.047720
H  -312182.293941 779705.946819   -36.112209
3
Step 40, Time 0.021 ps, Energy -119.889 kcal/mol
O     -3.946997 -100768.533541     3.499783
H  320249.595469 799703.343539   -18.510482
H  -320186.948646 799698.392074   -37.038163
3
Step 41, Time 0.021 ps, Energy -119.889 kcal/mol
O     -4.045671 -103287.746893     3.587278
H  328255.816345 819695.912582   -18.973245
H  -328191.603351 819690.837331   -37.964117
3
Step 42, Time 0.021 ps, Energy -119.889 kcal/mol
O     -4.144346 -105806.960244     3.674773
H  336262.037220 839688.481626   -19.436007
H  -336196.258055 839683.282588   -38.890071
3
Step 43, Time 0.022 ps, Energy -119.889 kcal/mol
O     -4.243021 -108326.173596     3.762267
H  344268.258094 859681.050670   -19.898769
H  -344200.912759 859675.727845   -39.816025
3
Step 44, Time 0.022 ps, Energy -119.889 kcal/mol
O     -4.341696 -110845.386948     3.849762
H  352274.478968 879673.619714   -20.361531
H  -352205.567463 879668.173103   -40.741979
3
Step 45, Time 0.023 ps, Energy -119.889 kcal/mol
O     -4.440371 -113364.600300     3.937256
H  360280.699842 899666.188760   -20.824293
H  -360210.222166 899660.618362   -41.667933
3
Step 46, Time 0.024 ps, Energy -119.889 kcal/mol
O     -4.539046 -115883.813652     4.024751
H  368286.920715 919658.757805   -21.287055
H  -368214.876869 919653.063621   -42.593887
3
Step 47, Time 0.024 ps, Energy -119.889 kcal/mol
O     -4.637721 -118403.027004     4.112245
H  376293.141588 939651.326851   -21.749817
H  -376219.531571 939645.508880   -43.519841
3
Step 48, Time 0.025 ps, Energy -119.889 kcal/mol
O     -4.736396 -120922.240356     4.199740
H  384299.362460 959643.895898   -22.212579
H  -384224.186273 959637.954140   -44.445795
3
Step 49, Time 0.025 ps, Energy -119.889 kcal/mol
O     -4.835071 -123441.453709     4.287235
H  392305.583333 979636.464945   -22.675341
H  -392228.840974 979630.399400   -45.371749
3
Step 50, Time 0.025 ps, Energy -119.889 kcal/mol
O     -4.933746 -125960.667061     4.374729
H  400311.804204 999629.033992   -23.138103
H  -400233.495676 999622.844661   -46.297703
3
Step 51, Time 0.026 ps, Energy -119.889 kcal/mol
O     -5.032421 -128479.880413     4.462224
H  408318.025076 1019621.603040   -23.600865
H  -408238.150377 1019615.289922   -47.223658
3
Step 52, Time 0.026 ps, Energy -119.889 kcal/mol
O     -5.131095 -130999.093765     4.549718
H  416324.245947 1039614.172088   -24.063627
H  -416242.805077 1039607.735183   -48.149612
3
Step 53, Time 0.027 ps, Energy -119.889 kcal/mol
O     -5.229770 -133518.307118     4.637213
H  424330.466818 1059606.741136   -24.526389
H  -424247.459777 1059600.180445   -49.075566
3
Step 54, Time 0.028 ps, Energy -119.889 kcal/mol
O     -5.328445 -136037.520470     4.724708
H  432336.687689 1079599.310185   -24.989151
H  -432252.114477 1079592.625707   -50.001520
3
Step 55, Time 0.028 ps, Energy -119.889 kcal/mol
O     -5.427120 -138556.733823     4.812202
H  440342.908559 1099591.879234   -25.451913
H  -440256.769177 1099585.070970   -50.927474
3
Step 56, Time 0.029 ps, Energy -119.889 kcal/mol
O     -5.525795 -141075.947175     4.899697
H  448349.129429 1119584.448284   -25.914676
H  -448261.423877 1119577.516233   -51.853428
3
Step 57, Time 0.029 ps, Energy -119.889 kcal/mol
O     -5.624470 -143595.160528     4.987191
H  456355.350299 1139577.017333   -26.377438
H  -456266.078576 1139569.961496   -52.779382
3
Step 58, Time 0.029 ps, Energy -119.889 kcal/mol
O     -5.723145 -146114.373880     5.074686
H  464361.571168 1159569.586383   -26.840200
H  -464270.733275 1159562.406759   -53.705336
3
Step 59, Time 0.030 ps, Energy -119.889 kcal/mol
O     -5.821820 -148633.587233     5.162181
H  472367.792038 1179562.155434   -27.302962
H  -472275.387974 1179554.852023   -54.631290
3
Step 60, Time 0.030 ps, Energy -119.889 kcal/mol
O     -5.920495 -151152.800586     5.249675
H  480374.012907 1199554.724484   -27.765724
H  -480280.042672 1199547.297287   -55.557244
3
Step 61, Time 0.031 ps, Energy -119.889 kcal/mol
O     -6.019170 -153672.013938     5.337170
H  488380.233775 1219547.293535   -28.228486
H  -488284.697370 1219539.742551   -56.483198
3
Step 62, Time 0.032 ps, Energy -119.889 kcal/mol
O     -6.117845 -156191.227291     5.424664
H  496386.454644 1239539.862586   -28.691248
H  -496289.352068 1239532.187816   -57.409152
3
Step 63, Time 0.032 ps, Energy -119.889 kcal/mol
O     -6.216520 -158710.440644     5.512159
H  504392.675513 1259532.431638   -29.154010
H  -504294.006766 1259524.633081   -58.335106
3
Step 64, Time 0.033 ps, Energy -119.889 kcal/mol
O     -6.315194 -161229.653997     5.599653
H  512398.896381 1279525.000690   -29.616772
H  -512298.661464 1279517.078346   -59.261060
3
Step 65, Time 0.033 ps, Energy -119.889 kcal/mol
O     -6.413869 -163748.867349     5.687148
H  520405.117249 1299517.569741   -30.079534
H  -520303.316161 1299509.523611   -60.187014
3
Step 66, Time 0.034 ps, Energy -119.889 kcal/mol
O     -6.512544 -166268.080702     5.774643
H  528411.338117 1319510.138794   -30.542296
H  -528307.970859 1319501.968877   -61.112969
3
Step 67, Time 0.034 ps, Energy -119.889 kcal/mol
O     -6.611219 -168787.294055     5.862137
H  536417.558984 1339502.707846   -31.005058
H  -536312.625556 1339494.414142   -62.038923
3
Step 68, Time 0.035 ps, Energy -119.889 kcal/mol
O     -6.709894 -171306.507408     5.949632
H  544423.779852 1359495.276899   -31.467820
H  -544317.280253 1359486.859408   -62.964877
3
Step 69, Time 0.035 ps, Energy -119.889 kcal/mol
O     -6.808569 -173825.720761     6.037126
H  552430.000719 1379487.845951   -31.930582
H  -552321.934949 1379479.304675   -63.890831
3
Step 70, Time 0.035 ps, Energy -119.889 kcal/mol
O     -6.907244 -176344.934114     6.124621
H  560436.221586 1399480.415004   -32.393345
H  -560326.589646 1399471.749941   -64.816785
3
Step 71, Time 0.036 ps, Energy -119.889 kcal/mol
O     -7.005919 -178864.147467     6.212116
H  568442.442453 1419472.984057   -32.856107
H  -568331.244342 1419464.195208   -65.742739
3
Step 72, Time 0.036 ps, Energy -119.889 kcal/mol
O     -7.104594 -181383.360820     6.299610
H  576448.663320 1439465.553111   -33.318869
H  -576335.899039 1439456.640474   -66.668693
3
Step 73, Time 0.037 ps, Energy -119.889 kcal/mol
O     -7.203269 -183902.574173     6.387105
H  584454.884187 1459458.122164   -33.781631
H  -584340.553735 1459449.085741   -67.594647
3
Step 74, Time 0.037 ps, Energy -119.889 kcal/mol
O     -7.301944 -186421.787526     6.474599
H  592461.105053 1479450.691218   -34.244393
H  -592345.208431 1479441.531008   -68.520601
3
Step 75, Time 0.038 ps, Energy -119.889 kcal/mol
O     -7.400619 -188941.000879     6.562094
H  600467.325919 1499443.260272   -34.707155
H  -600349.863126 1499433.976276   -69.446555
3
Step 76, Time 0.038 ps, Energy -119.889 kcal/mol
O     -7.499293 -191460.214232     6.649588
H  608473.546786 1519435.829326   -35.169917
H  -608354.517822 1519426.421543   -70.372509
3
Step 77, Time 0.039 ps, Energy -119.889 kcal/mol
O     -7.597968 -193979.427585     6.737083
H  616479.767652 1539428.398381   -35.632679
H  -616359.172517 1539418.866811   -71.298463
3
Step 78, Time 0.040 ps, Energy -119.889 kcal/mol
O     -7.696643 -196498.640938     6.824578
H  624485.988518 1559420.967435   -36.095441
H  -624363.827213 1559411.312079   -72.224417
3
Step 79, Time 0.040 ps, Energy -119.889 kcal/mol
O     -7.795318 -199017.854292     6.912072
H  632492.209383 1579413.536490   -36.558203
H  -632368.481908 1579403.757347   -73.150371
3
Step 80, Time 0.041 ps, Energy -119.889 kcal/mol
O     -7.893993 -201537.067645     6.999567
H  640498.430249 1599406.105544   -37.020965
H  -640373.136603 1599396.202615   -74.076326
3
Step 81, Time 0.041 ps, Energy -119.889 kcal/mol
O     -7.992668 -204056.280998     7.087061
H  648504.651115 1619398.674599   -37.483727
H  -648377.791298 1619388.647883   -75.002280
3
Step 82, Time 0.042 ps, Energy -119.889 kcal/mol
O     -8.091343 -206575.494351     7.174556
H  656510.871980 1639391.243654   -37.946489
H  -656382.445993 1639381.093152   -75.928234
3
Step 83, Time 0.042 ps, Energy -119.889 kcal/mol
O     -8.190018 -209094.707704     7.262051
H  664517.092845 1659383.812710   -38.409251
H  -664387.100688 1659373.538420   -76.854188
3
Step 84, Time 0.043 ps, Energy -119.889 kcal/mol
O     -8.288693 -211613.921058     7.349545
H  672523.313711 1679376.381765   -38.872013
H  -672391.755382 1679365.983689   -77.780142
3
Step 85, Time 0.043 ps, Energy -119.889 kcal/mol
O     -8.387368 -214133.134411     7.437040
H  680529.534576 1699368.950820   -39.334776
H  -680396.410077 1699358.428958   -78.706096
3
Step 86, Time 0.043 ps, Energy -119.889 kcal/mol
O     -8.486043 -216652.347764     7.524534
H  688535.755441 1719361.519876   -39.797538
H  -688401.064771 1719350.874227   -79.632050
3
Step 87, Time 0.044 ps, Energy -119.889 kcal/mol
O     -8.584717 -219171.561118     7.612029
H  696541.976305 1739354.088932   -40.260300
H  -696405.719465 1739343.319496   -80.558004
3
Step 88, Time 0.044 ps, Energy -119.889 kcal/mol
O     -8.683392 -221690.774471     7.699523
H  704548.197170 1759346.657988   -40.723062
H  -704410.374159 1759335.764765   -81.483958
3
Step 89, Time 0.045 ps, Energy -119.889 kcal/mol
O     -8.782067 -224209.987824     7.787018
H  712554.418035 1779339.227044   -41.185824
H  -712415.028854 1779328.210035   -82.409912
3
Step 90, Time 0.045 ps, Energy -119.889 kcal/mol
O     -8.880742 -226729.201178     7.874513
H  720560.638899 1799331.796100   -41.648586
H  -720419.683547 1799320.655304   -83.335866
3
Step 91, Time 0.046 ps, Energy -119.889 kcal/mol
O     -8.979417 -229248.414531     7.962007
H  728566.859764 1819324.365156   -42.111348
H  -728424.338241 1819313.100574   -84.261820
3
Step 92, Time 0.046 ps, Energy -119.889 kcal/mol
O     -9.078092 -231767.627884     8.049502
H  736573.080628 1839316.934212   -42.574110
H  -736428.992935 1839305.545844   -85.187774
3
Step 93, Time 0.047 ps, Energy -119.889 kcal/mol
O     -9.176767 -234286.841238     8.136996
H  744579.301492 1859309.503269   -43.036872
H  -744433.647629 1859297.991114   -86.113728
3
Step 94, Time 0.048 ps, Energy -119.889 kcal/mol
O     -9.275442 -236806.054591     8.224491
H  752585.522357 1879302.072326   -43.499634
H  -752438.302322 1879290.436384   -87.039683
3
Step 95, Time 0.048 ps, Energy -119.889 kcal/mol
O     -9.374117 -239325.267945     8.311986
H  760591.743221 1899294.641382   -43.962396
H  -760442.957016 1899282.881654   -87.965637
3
Step 96, Time 0.049 ps, Energy -119.889 kcal/mol
O     -9.472792 -241844.481298     8.399480
H  768597.964085 1919287.210439   -44.425158
H  -768447.611709 1919275.326924   -88.891591
3
Step 97, Time 0.049 ps, Energy -119.889 kcal/mol
O     -9.571467 -244363.694651     8.486975
H  776604.184948 1939279.779496   -44.887920
H  -776452.266403 1939267.772194   -89.817545
3
Step 98, Time 0.050 ps, Energy -119.889 kcal/mol
O     -9.670142 -246882.908005     8.574469
H  784610.405812 1959272.348553   -45.350682
H  -784456.921096 1959260.217465   -90.743499
3
Step 99, Time 0.050 ps, Energy -119.889 kcal/mol
O     -9.768816 -249402.121358     8.661964
H  792616.626676 1979264.917610   -45.813445
H  -792461.575789 1979252.662735   -91.669453
3
Step 100, Time 0.051 ps, Energy -119.889 kcal/mol
O     -9.867491 -251921.334712     8.749458
H  800622.847540 1999257.486667   -46.276207
H  -800466.230482 1999245.108006   -92.595407
3
Step 101, Time 0.051 ps, Energy -119.889 kcal/mol
O     -9.966166 -254440.548065     8.836953
H  808629.068403 2019250.055725   -46.738969
H  -808470.885175 2019237.553276   -93.521361
3
Step 102, Time 0.051 ps, Energy -119.889 kcal/mol
O    -10.064841 -256959.761419     8.924448
H  816635.289267 2039242.624782   -47.201731
H  -816475.539868 2039229.998547   -94.447315
3
Step 103, Time 0.052 ps, Energy -119.889 kcal/mol
O    -10.163516 -259478.974772     9.011942
H  824641.510130 2059235.193840   -47.664493
H  -824480.194561 2059222.443818   -95.373269
3
Step 104, Time 0.052 ps, Energy -119.889 kcal/mol
O    -10.262191 -261998.188126     9.099437
H  832647.730993 2079227.762897   -48.127255
H  -832484.849253 2079214.889089   -96.299223
3
Step 105, Time 0.053 ps, Energy -119.889 kcal/mol
O    -10.360866 -264517.401479     9.186931
H  840653.951857 2099220.331955   -48.590017
H  -840489.503946 2099207.334360   -97.225177
3
Step 106, Time 0.053 ps, Energy -119.889 kcal/mol
O    -10.459541 -267036.614833     9.274426
H  848660.172720 2119212.901013   -49.052779
H  -848494.158639 2119199.779631   -98.151131
3
Step 107, Time 0.054 ps, Energy -119.889 kcal/mol
O    -10.558216 -269555.828187     9.361921
H  856666.393583 2139205.470071   -49.515541
H  -856498.813331 2139192.224903   -99.077085
3
Step 108, Time 0.054 ps, Energy -119.889 kcal/mol
O    -10.656891 -272075.041540     9.449415
H  864672.614446 2159198.039129   -49.978303
H  -864503.468024 2159184.670174  -100.003039
3
Step 109, Time 0.055 ps, Energy -119.889 kcal/mol
O    -10.755566 -274594.254894     9.536910
H  872678.835309 2179190.608187   -50.441065
H  -872508.122716 2179177.115446  -100.928994
3
Step 110, Time 0.056 ps, Energy -119.889 kcal/mol
O    -10.854240 -277113.468247     9.624404
H  880685.056172 2199183.177245   -50.903827
H  -880512.777408 2199169.560717  -101.854948
3
Step 111, Time 0.056 ps, Energy -119.889 kcal/mol
O    -10.952915 -279632.681601     9.711899
H  888691.277034 2219175.746303   -51.366589
H  -888517.432100 2219162.005989  -102.780902
3
Step 112, Time 0.057 ps, Energy -119.889 kcal/mol
O    -11.051590 -282151.894955     9.799394
H  896697.497897 2239168.315361   -51.829351
H  -896522.086793 2239154.451260  -103.706856
3
Step 113, Time 0.057 ps, Energy -119.889 kcal/mol
O    -11.150265 -284671.108308     9.886888
H  904703.718760 2259160.884420   -52.292113
H  -904526.741485 2259146.896532  -104.632810
3
Step 114, Time 0.058 ps, Energy -119.889 kcal/mol
O    -11.248940 -287190.321662     9.974383
H  912709.939623 2279153.453478   -52.754876
H  -912531.396177 2279139.341804  -105.558764
3
Step 115, Time 0.058 ps, Energy -119.889 kcal/mol
O    -11.347615 -289709.535016    10.061877
H  920716.160485 2299146.022537   -53.217638
H  -920536.050869 2299131.787076  -106.484718
3
Step 116, Time 0.059 ps, Energy -119.889 kcal/mol
O    -11.446290 -292228.748369    10.149372
H  928722.381348 2319138.591595   -53.680400
H  -928540.705561 2319124.232348  -107.410672
3
Step 117, Time 0.059 ps, Energy -119.889 kcal/mol
O    -11.544965 -294747.961723    10.236866
H  936728.602210 2339131.160654   -54.143162
H  -936545.360253 2339116.677620  -108.336626
3
Step 118, Time 0.059 ps, Energy -119.889 kcal/mol
O    -11.643640 -297267.175077    10.324361
H  944734.823072 2359123.729713   -54.605924
H  -944550.014944 2359109.122892  -109.262580
3
Step 119, Time 0.060 ps, Energy -119.889 kcal/mol
O    -11.742315 -299786.388430    10.411856
H  952741.043935 2379116.298771   -55.068686
H  -952554.669636 2379101.568164  -110.188534
3
Step 120, Time 0.060 ps, Energy -119.889 kcal/mol
O    -11.840990 -302305.601784    10.499350
H  960747.264797 2399108.867830   -55.531448
H  -960559.324328 2399094.013436  -111.114488
3
Step 121, Time 0.061 ps, Energy -119.889 kcal/mol
O    -11.939665 -304824.815138    10.586845
H  968753.485659 2419101.436889   -55.994210
H  -968563.979019 2419086.458709  -112.040442
3
Step 122, Time 0.061 ps, Energy -119.889 kcal/mol
O    -12.038339 -307344.028491    10.674339
H  976759.706521 2439094.005948   -56.456972
H  -976568.633711 2439078.903981  -112.966396
3
Step 123, Time 0.062 ps, Energy -119.889 kcal/mol
O    -12.137014 -309863.241845    10.761834
H  984765.927384 2459086.575007   -56.919734
H  -984573.288403 2459071.349254  -113.892351
3
Step 124, Time 0.062 ps, Energy -119.889 kcal/mol
O    -12.235689 -312382.455199    10.849329
H  992772.148246 2479079.144066   -57.382496
H  -992577.943094 2479063.794526  -114.818305
3
Step 125, Time 0.063 ps, Energy -119.889 kcal/mol
O    -12.334364 -314901.668553    10.936823
H  1000778.369108 2499071.713126   -57.845258
H  -1000582.597785 2499056.239799  -115.744259
3
Step 126, Time 0.064 ps, Energy -119.889 kcal/mol
O    -12.433039 -317420.881906    11.024318
H  1008784.589970 2519064.282185   -58.308020
H  -1008587.252477 2519048.685071  -116.670213
3
Step 127, Time 0.064 ps, Energy -119.889 kcal/mol
O    -12.531714 -319940.095260    11.111812
H  1016790.810831 2539056.851244   -58.770782
H  -1016591.907168 2539041.130344  -117.596167
3
Step 128, Time 0.065 ps, Energy -119.889 kcal/mol
O    -12.630389 -322459.308614    11.199307
H  1024797.031693 2559049.420304   -59.233545
H  -1024596.561859 2559033.575617  -118.522121
3
Step 129, Time 0.065 ps, Energy -119.889 kcal/mol
O    -12.729064 -324978.521968    11.286801
H  1032803.252555 2579041.989363   -59.696307
H  -1032601.216551 2579026.020890  -119.448075
3
Step 130, Time 0.066 ps, Energy -119.889 kcal/mol
O    -12.827739 -327497.735321    11.374296
H  1040809.473417 2599034.558423   -60.159069
H  -1040605.871242 2599018.466163  -120.374029
3
Step 131, Time 0.066 ps, Energy -119.889 kcal/mol
O    -12.926414 -330016.948675    11.461791
H  1048815.694279 2619027.127482   -60.621831
H  -1048610.525933 2619010.911436  -121.299983
3
Step 132, Time 0.067 ps, Energy -119.889 kcal/mol
O    -13.025089 -332536.162029    11.549285
H  1056821.915140 2639019.696542   -61.084593
H  -1056615.180624 2639003.356709  -122.225937
3
Step 133, Time 0.067 ps, Energy -119.889 kcal/mol
O    -13.123764 -335055.375383    11.636780
H  1064828.136002 2659012.265601   -61.547355
H  -1064619.835315 2658995.801982  -123.151891
3
Step 134, Time 0.068 ps, Energy -119.889 kcal/mol
O    -13.222438 -337574.588736    11.724274
H  1072834.356863 2679004.834661   -62.010117
H  -1072624.490006 2678988.247255  -124.077845
3
Step 135, Time 0.068 ps, Energy -119.889 kcal/mol
O    -13.321113 -340093.802090    11.811769
H  1080840.577725 2698997.403721   -62.472879
H  -1080629.144697 2698980.692528  -125.003799
3
Step 136, Time 0.069 ps, Energy -119.889 kcal/mol
O    -13.419788 -342613.015444    11.899264
H  1088846.798586 2718989.972781   -62.935641
H  -1088633.799388 2718973.137801  -125.929753
3
Step 137, Time 0.069 ps, Energy -119.889 kcal/mol
O    -13.518463 -345132.228798    11.986758
H  1096853.019448 2738982.541841   -63.398403
H  -1096638.454079 2738965.583074  -126.855708
3
Step 138, Time 0.070 ps, Energy -119.889 kcal/mol
O    -13.617138 -347651.442152    12.074253
H  1104859.240309 2758975.110901   -63.861165
H  -1104643.108770 2758958.028348  -127.781662
3
Step 139, Time 0.070 ps, Energy -119.889 kcal/mol
O    -13.715813 -350170.655506    12.161747
H  1112865.461171 2778967.679961   -64.323927
H  -1112647.763460 2778950.473621  -128.707616
3
Step 140, Time 0.070 ps, Energy -119.889 kcal/mol
O    -13.814488 -352689.868859    12.249242
H  1120871.682032 2798960.249021   -64.786689
H  -1120652.418151 2798942.918895  -129.633570
3
Step 141, Time 0.071 ps, Energy -119.889 kcal/mol
O    -13.913163 -355209.082213    12.336736
H  1128877.902893 2818952.818081   -65.249451
H  -1128657.072842 2818935.364168  -130.559524
3
Step 142, Time 0.071 ps, Energy -119.889 kcal/mol
O    -14.011838 -357728.295567    12.424231
H  1136884.123754 2838945.387141   -65.712213
H  -1136661.727532 2838927.809442  -131.485478
3
Step 143, Time 0.072 ps, Energy -119.889 kcal/mol
O    -14.110513 -360247.508921    12.511726
H  1144890.344616 2858937.956201   -66.174976
H  -1144666.382223 2858920.254715  -132.411432
3
Step 144, Time 0.072 ps, Energy -119.889 kcal/mol
O    -14.209188 -362766.722275    12.599220
H  1152896.565477 2878930.525261   -66.637738
H  -1152671.036914 2878912.699989  -133.337386
3
Step 145, Time 0.073 ps, Energy -119.889 kcal/mol
O    -14.307862 -365285.935629    12.686715
H  1160902.786338 2898923.094322   -67.100500
H  -1160675.691604 2898905.145262  -134.263340
3
Step 146, Time 0.073 ps, Energy -119.889 kcal/mol
O    -14.406537 -367805.148983    12.774209
H  1168909.007199 2918915.663382   -67.563262
H  -1168680.346295 2918897.590536  -135.189294
3
Step 147, Time 0.074 ps, Energy -119.889 kcal/mol
O    -14.505212 -370324.362337    12.861704
H  1176915.228060 2938908.232442   -68.026024
H  -1176685.000985 2938890.035810  -136.115248
3
Step 148, Time 0.074 ps, Energy -119.889 kcal/mol
O    -14.603887 -372843.575690    12.949199
H  1184921.448921 2958900.801503   -68.488786
H  -1184689.655675 2958882.481084  -137.041202
3
Step 149, Time 0.075 ps, Energy -119.889 kcal/mol
O    -14.702562 -375362.789044    13.036693
H  1192927.669782 2978893.370563   -68.951548
H  -1192694.310366 2978874.926358  -137.967156
3
Step 150, Time 0.075 ps, Energy -119.889 kcal/mol
O    -14.801237 -377882.002398    13.124188
H  1200933.890643 2998885.939624   -69.414310
H  -1200698.965056 2998867.371632  -138.893110
3
Step 151, Time 0.076 ps, Energy -119.889 kcal/mol
O    -14.899912 -380401.215752    13.211682
H  1208940.111504 3018878.508684   -69.877072
H  -1208703.619746 3018859.816905  -139.819064
3
Step 152, Time 0.076 ps, Energy -119.889 kcal/mol
O    -14.998587 -382920.429106    13.299177
H  1216946.332364 3038871.077745   -70.339834
H  -1216708.274437 3038852.262179  -140.745019
3
Step 153, Time 0.077 ps, Energy -119.889 kcal/mol
O    -15.097262 -385439.642460    13.386672
H  1224952.553225 3058863.646806   -70.802596
H  -1224712.929127 3058844.707454  -141.670973
3
Step 154, Time 0.077 ps, Energy -119.889 kcal/mol
O    -15.195937 -387958.855814    13.474166
H  1232958.774086 3078856.215866   -71.265358
H  -1232717.583817 3078837.152728  -142.596927
3
Step 155, Time 0.078 ps, Energy -119.889 kcal/mol
O    -15.294612 -390478.069168    13.561661
H  1240964.994947 3098848.784927   -71.728120
H  -1240722.238507 3098829.598002  -143.522881
3
Step 156, Time 0.079 ps, Energy -119.889 kcal/mol
O    -15.393287 -392997.282522    13.649155
H  1248971.215807 3118841.353988   -72.190882
H  -1248726.893197 3118822.043276  -144.448835
3
Step 157, Time 0.079 ps, Energy -119.889 kcal/mol
O    -15.491961 -395516.495876    13.736650
H  1256977.436668 3138833.923048   -72.653645
H  -1256731.547887 3138814.488550  -145.374789
3
Step 158, Time 0.080 ps, Energy -119.889 kcal/mol
O    -15.590636 -398035.709230    13.824144
H  1264983.657529 3158826.492109   -73.116407
H  -1264736.202578 3158806.933824  -146.300743
3
Step 159, Time 0.080 ps, Energy -119.889 kcal/mol
O    -15.689311 -400554.922584    13.911639
H  1272989.878389 3178819.061170   -73.579169
H  -1272740.857268 3178799.379099  -147.226697
3
Step 160, Time 0.081 ps, Energy -119.889 kcal/mol
O    -15.787986 -403074.135938    13.999134
H  1280996.099250 3198811.630231   -74.041931
H  -1280745.511958 3198791.824373  -148.152651
3
Step 161, Time 0.081 ps, Energy -119.889 kcal/mol
O    -15.886661 -405593.349292    14.086628
H  1289002.320111 3218804.199292   -74.504693
H  -1288750.166648 3218784.269647  -149.078605
3
Step 162, Time 0.082 ps, Energy -119.889 kcal/mol
O    -15.985336 -408112.562645    14.174123
H  1297008.540971 3238796.768353   -74.967455
H  -1296754.821337 3238776.714922  -150.004559
3
Step 163, Time 0.082 ps, Energy -119.889 kcal/mol
O    -16.084011 -410631.775999    14.261617
H  1305014.761832 3258789.337414   -75.430217
H  -1304759.476027 3258769.160196  -150.930513
3
Step 164, Time 0.083 ps, Energy -119.889 kcal/mol
O    -16.182686 -413150.989353    14.349112
H  1313020.982692 3278781.906475   -75.892979
H  -1312764.130717 3278761.605471  -151.856467
3
Step 165, Time 0.083 ps, Energy -119.889 kcal/mol
O    -16.281361 -415670.202707    14.436607
H  1321027.203552 3298774.475536   -76.355741
H  -1320768.785407 3298754.050745  -152.782421
3
Step 166, Time 0.084 ps, Energy -119.889 kcal/mol
O    -16.380036 -418189.416061    14.524101
H  1329033.424413 3318767.044597   -76.818503
H  -1328773.440097 3318746.496020  -153.708376
3
Step 167, Time 0.084 ps, Energy -119.889 kcal/mol
O    -16.478711 -420708.629415    14.611596
H  1337039.645273 3338759.613659   -77.281265
H  -1336778.094787 3338738.941294  -154.634330
3
Step 168, Time 0.085 ps, Energy -119.889 kcal/mol
O    -16.577385 -423227.842769    14.699090
H  1345045.866134 3358752.182720   -77.744027
H  -1344782.749476 3358731.386569  -155.560284
3
Step 169, Time 0.085 ps, Energy -119.889 kcal/mol
O    -16.676060 -425747.056123    14.786585
H  1353052.086994 3378744.751781   -78.206789
H  -1352787.404166 3378723.831843  -156.486238
3
Step 170, Time 0.086 ps, Energy -119.889 kcal/mol
O    -16.774735 -428266.269477    14.874079
H  1361058.307854 3398737.320842   -78.669551
H  -1360792.058856 3398716.277118  -157.412192
3
Step 171, Time 0.086 ps, Energy -119.889 kcal/mol
O    -16.873410 -430785.482831    14.961574
H  1369064.528714 3418729.889904   -79.132313
H  -1368796.713546 3418708.722393  -158.338146
3
Step 172, Time 0.086 ps, Energy -119.889 kcal/mol
O    -16.972085 -433304.696185    15.049069
H  1377070.749575 3438722.458965   -79.595076
H  -1376801.368235 3438701.167667  -159.264100
3
Step 173, Time 0.087 ps, Energy -119.889 kcal/mol
O    -17.070760 -435823.909539    15.136563
H  1385076.970435 3458715.028026   -80.057838
H  -1384806.022925 3458693.612942  -160.190054
3
Step 174, Time 0.087 ps, Energy -119.889 kcal/mol
O    -17.169435 -438343.122893    15.224058
H  1393083.191295 3478707.597088   -80.520600
H  -1392810.677614 3478686.058217  -161.116008
3
Step 175, Time 0.088 ps, Energy -119.889 kcal/mol
O    -17.268110 -440862.336247    15.311552
H  1401089.412155 3498700.166149   -80.983362
H  -1400815.332304 3498678.503492  -162.041962
3
Step 176, Time 0.088 ps, Energy -119.889 kcal/mol
O    -17.366785 -443381.549601    15.399047
H  1409095.633015 3518692.735211   -81.446124
H  -1408819.986994 3518670.948767  -162.967916
3
Step 177, Time 0.089 ps, Energy -119.889 kcal/mol
O    -17.465460 -445900.762955    15.486542
H  1417101.853875 3538685.304272   -81.908886
H  -1416824.641683 3538663.394042  -163.893870
3
Step 178, Time 0.089 ps, Energy -119.889 kcal/mol
O    -17.564135 -448419.976309    15.574036
H  1425108.074735 3558677.873334   -82.371648
H  -1424829.296373 3558655.839317  -164.819824
3
Step 179, Time 0.090 ps, Energy -119.889 kcal/mol
O    -17.662810 -450939.189664    15.661531
H  1433114.295595 3578670.442395   -82.834410
H  -1432833.951062 3578648.284592  -165.745778
3
Step 180, Time 0.090 ps, Energy -119.889 kcal/mol
O    -17.761484 -453458.403018    15.749025
H  1441120.516455 3598663.011457   -83.297172
H  -1440838.605751 3598640.729867  -166.671733
3
Step 181, Time 0.091 ps, Energy -119.889 kcal/mol
O    -17.860159 -455977.616372    15.836520
H  1449126.737315 3618655.580519   -83.759934
H  -1448843.260441 3618633.175142  -167.597687
3
Step 182, Time 0.091 ps, Energy -119.889 kcal/mol
O    -17.958834 -458496.829726    15.924014
H  1457132.958175 3638648.149580   -84.222696
H  -1456847.915130 3638625.620417  -168.523641
3
Step 183, Time 0.092 ps, Energy -119.889 kcal/mol
O    -18.057509 -461016.043080    16.011509
H  1465139.179035 3658640.718642   -84.685458
H  -1464852.569820 3658618.065692  -169.449595
3
Step 184, Time 0.092 ps, Energy -119.889 kcal/mol
O    -18.156184 -463535.256434    16.099004
H  1473145.399895 3678633.287704   -85.148220
H  -1472857.224509 3678610.510967  -170.375549
3
Step 185, Time 0.093 ps, Energy -119.889 kcal/mol
O    -18.254859 -466054.469788    16.186498
H  1481151.620755 3698625.856766   -85.610982
H  -1480861.879198 3698602.956242  -171.301503
3
Step 186, Time 0.093 ps, Energy -119.889 kcal/mol
O    -18.353534 -468573.683142    16.273993
H  1489157.841615 3718618.425827   -86.073745
H  -1488866.533888 3718595.401517  -172.227457
3
Step 187, Time 0.094 ps, Energy -119.889 kcal/mol
O    -18.452209 -471092.896496    16.361487
H  1497164.062475 3738610.994889   -86.536507
H  -1496871.188577 3738587.846792  -173.153411
3
Step 188, Time 0.095 ps, Energy -119.889 kcal/mol
O    -18.550884 -473612.109850    16.448982
H  1505170.283335 3758603.563951   -86.999269
H  -1504875.843266 3758580.292068  -174.079365
3
Step 189, Time 0.095 ps, Energy -119.889 kcal/mol
O    -18.649559 -476131.323204    16.536477
H  1513176.504194 3778596.133013   -87.462031
H  -1512880.497955 3778572.737343  -175.005319
3
Step 190, Time 0.096 ps, Energy -119.889 kcal/mol
O    -18.748234 -478650.536558    16.623971
H  1521182.725054 3798588.702075   -87.924793
H  -1520885.152644 3798565.182618  -175.931273
3
Step 191, Time 0.096 ps, Energy -119.889 kcal/mol
O    -18.846908 -481169.749912    16.711466
H  1529188.945914 3818581.271137   -88.387555
H  -1528889.807334 3818557.627893  -176.857227
3
Step 192, Time 0.097 ps, Energy -119.889 kcal/mol
O    -18.945583 -483688.963266    16.798960
H  1537195.166774 3838573.840199   -88.850317
H  -1536894.462023 3838550.073169  -177.783181
3
Step 193, Time 0.097 ps, Energy -119.889 kcal/mol
O    -19.044258 -486208.176620    16.886455
H  1545201.387633 3858566.409261   -89.313079
H  -1544899.116712 3858542.518444  -178.709135
3
Step 194, Time 0.098 ps, Energy -119.889 kcal/mol
O    -19.142933 -488727.389975    16.973949
H  1553207.608493 3878558.978323   -89.775841
H  -1552903.771401 3878534.963720  -179.635089
3
Step 195, Time 0.098 ps, Energy -119.889 kcal/mol
O    -19.241608 -491246.603329    17.061444
H  1561213.829353 3898551.547385   -90.238603
H  -1560908.426090 3898527.408995  -180.561044
3
Step 196, Time 0.099 ps, Energy -119.889 kcal/mol
O    -19.340283 -493765.816683    17.148939
H  1569220.050212 3918544.116447   -90.701365
H  -1568913.080779 3918519.854270  -181.486998
3
Step 197, Time 0.099 ps, Energy -119.889 kcal/mol
O    -19.438958 -496285.030037    17.236433
H  1577226.271072 3938536.685509   -91.164127
H  -1576917.735468 3938512.299546  -182.412952
3
Step 198, Time 0.100 ps, Energy -119.889 kcal/mol
O    -19.537633 -498804.243391    17.323928
H  1585232.491932 3958529.254571   -91.626889
H  -1584922.390157 3958504.744821  -183.338906
3
Step 199, Time 0.100 ps, Energy -119.889 kcal/mol
O    -19.636308 -501323.456745    17.411422
H  1593238.712791 3978521.823633   -92.089651
H  -1592927.044846 3978497.190097  -184.264860
3
Step 200, Time 0.101 ps, Energy -119.889 kcal/mol
O    -19.734983 -503842.670099    17.498917
H  1601244.933651 3998514.392695   -92.552413
H  -1600931.699535 3998489.635372  -185.190814
3
Step 201, Time 0.101 ps, Energy -119.889 kcal/mol
O    -19.833658 -506361.883453    17.586412
H  1609251.154510 4018506.961757   -93.015176
H  -1608936.354224 4018482.080648  -186.116768
3
Step 202, Time 0.102 ps, Energy -119.889 kcal/mol
O    -19.932333 -508881.096807    17.673906
H  1617257.375370 4038499.530819   -93.477938
H  -1616941.008913 4038474.525924  -187.042722
3
Step 203, Time 0.102 ps, Energy -119.889 kcal/mol
O    -20.031007 -511400.310161    17.761401
H  1625263.596229 4058492.099882   -93.940700
H  -1624945.663602 4058466.971199  -187.968676
3
Step 204, Time 0.102 ps, Energy -119.889 kcal/mol
O    -20.129682 -513919.523516    17.848895
H  1633269.817089 4078484.668944   -94.403462
H  -1632950.318291 4078459.416475  -188.894630
3
Step 205, Time 0.103 ps, Energy -119.889 kcal/mol
O    -20.228357 -516438.736870    17.936390
H  1641276.037948 4098477.238006   -94.866224
H  -1640954.972980 4098451.861750  -189.820584
3
Step 206, Time 0.103 ps, Energy -119.889 kcal/mol
O    -20.327032 -518957.950224    18.023885
H  1649282.258808 4118469.807068   -95.328986
H  -1648959.627669 4118444.307026  -190.746538
3
Step 207, Time 0.104 ps, Energy -119.889 kcal/mol
O    -20.425707 -521477.163578    18.111379
H  1657288.479667 4138462.376131   -95.791748
H  -1656964.282358 4138436.752302  -191.672492
3
Step 208, Time 0.104 ps, Energy -119.889 kcal/mol
O    -20.524382 -523996.376932    18.198874
H  1665294.700527 4158454.945193   -96.254510
H  -1664968.937046 4158429.197578  -192.598446
3
Step 209, Time 0.105 ps, Energy -119.889 kcal/mol
O    -20.623057 -526515.590286    18.286368
H  1673300.921386 4178447.514255   -96.717272
H  -1672973.591735 4178421.642853  -193.524401
3
Step 210, Time 0.105 ps, Energy -119.889 kcal/mol
O    -20.721732 -529034.803640    18.373863
H  1681307.142245 4198440.083318   -97.180034
H  -1680978.246424 4198414.088129  -194.450355
3
Step 211, Time 0.106 ps, Energy -119.889 kcal/mol
O    -20.820407 -531554.016995    18.461357
H  1689313.363105 4218432.652380   -97.642796
H  -1688982.901113 4218406.533405  -195.376309
3
Step 212, Time 0.106 ps, Energy -119.889 kcal/mol
O    -20.919082 -534073.230349    18.548852
H  1697319.583964 4238425.221443   -98.105558
H  -1696987.555802 4238398.978681  -196.302263
3
Step 213, Time 0.107 ps, Energy -119.889 kcal/mol
O    -21.017757 -536592.443703    18.636347
H  1705325.804823 4258417.790505   -98.568320
H  -1704992.210490 4258391.423957  -197.228217
3
Step 214, Time 0.107 ps, Energy -119.889 kcal/mol
O    -21.116432 -539111.657057    18.723841
H  1713332.025683 4278410.359568   -99.031082
H  -1712996.865179 4278383.869232  -198.154171
3
Step 215, Time 0.108 ps, Energy -119.889 kcal/mol
O    -21.215106 -541630.870411    18.811336
H  1721338.246542 4298402.928630   -99.493845
H  -1721001.519868 4298376.314508  -199.080125
3
Step 216, Time 0.108 ps, Energy -119.889 kcal/mol
O    -21.313781 -544150.083765    18.898830
H  1729344.467401 4318395.497693   -99.956607
H  -1729006.174556 4318368.759784  -200.006079
3
Step 217, Time 0.109 ps, Energy -119.889 kcal/mol
O    -21.412456 -546669.297119    18.986325
H  1737350.688260 4338388.066755  -100.419369
H  -1737010.829245 4338361.205060  -200.932033
3
Step 218, Time 0.110 ps, Energy -119.889 kcal/mol
O    -21.511131 -549188.510474    19.073820
H  1745356.909120 4358380.635818  -100.882131
H  -1745015.483934 4358353.650336  -201.857987
3
Step 219, Time 0.110 ps, Energy -119.889 kcal/mol
O    -21.609806 -551707.723828    19.161314
H  1753363.129979 4378373.204880  -101.344893
H  -1753020.138622 4378346.095612  -202.783941
3
Step 220, Time 0.111 ps, Energy -119.889 kcal/mol
O    -21.708481 -554226.937182    19.248809
H  1761369.350838 4398365.773943  -101.807655
H  -1761024.793311 4398338.540888  -203.709895
3
Step 221, Time 0.111 ps, Energy -119.889 kcal/mol
O    -21.807156 -556746.150536    19.336303
H  1769375.571697 4418358.343006  -102.270417
H  -1769029.448000 4418330.986164  -204.635849
3
Step 222, Time 0.112 ps, Energy -119.889 kcal/mol
O    -21.905831 -559265.363890    19.423798
H  1777381.792556 4438350.912068  -102.733179
H  -1777034.102688 4438323.431440  -205.561803
3
Step 223, Time 0.112 ps, Energy -119.889 kcal/mol
O    -22.004506 -561784.577244    19.511292
H  1785388.013416 4458343.481131  -103.195941
H  -1785038.757377 4458315.876716  -206.487758
3
Step 224, Time 0.113 ps, Energy -119.889 kcal/mol
O    -22.103181 -564303.790599    19.598787
H  1793394.234275 4478336.050193  -103.658703
H  -1793043.412065 4478308.321992  -207.413712
3
Step 225, Time 0.113 ps, Energy -119.889 kcal/mol
O    -22.201856 -566823.003953    19.686282
H  1801400.455134 4498328.619256  -104.121465
H  -1801048.066754 4498300.767268  -208.339666
3
Step 226, Time 0.114 ps, Energy -119.889 kcal/mol
O    -22.300530 -569342.217307    19.773776
H  1809406.675993 4518321.188319  -104.584227
H  -1809052.721442 4518293.212544  -209.265620
3
Step 227, Time 0.114 ps, Energy -119.889 kcal/mol
O    -22.399205 -571861.430661    19.861271
H  1817412.896852 4538313.757382  -105.046989
H  -1817057.376131 4538285.657820  -210.191574
3
Step 228, Time 0.115 ps, Energy -119.889 kcal/mol
O    -22.497880 -574380.644015    19.948765
H  1825419.117711 4558306.326444  -105.509751
H  -1825062.030819 4558278.103097  -211.117528
3
Step 229, Time 0.115 ps, Energy -119.889 kcal/mol
O    -22.596555 -576899.857370    20.036260
H  1833425.338570 4578298.895507  -105.972513
H  -1833066.685508 4578270.548373  -212.043482
3
Step 230, Time 0.116 ps, Energy -119.889 kcal/mol
O    -22.695230 -579419.070724    20.123755
H  1841431.559429 4598291.464570  -106.435276
H  -1841071.340196 4598262.993649  -212.969436
3
Step 231, Time 0.116 ps, Energy -119.889 kcal/mol
O    -22.793905 -581938.284078    20.211249
H  1849437.780288 4618284.033633  -106.898038
H  -1849075.994885 4618255.438925  -213.895390
3
Step 232, Time 0.117 ps, Energy -119.889 kcal/mol
O    -22.892580 -584457.497432    20.298744
H  1857444.001147 4638276.602696  -107.360800
H  -1857080.649573 4638247.884201  -214.821344
3
Step 233, Time 0.117 ps, Energy -119.889 kcal/mol
O    -22.991255 -586976.710786    20.386238
H  1865450.222006 4658269.171758  -107.823562
H  -1865085.304262 4658240.329478  -215.747298
3
Step 234, Time 0.117 ps, Energy -119.889 kcal/mol
O    -23.089930 -589495.924140    20.473733
H  1873456.442865 4678261.740821  -108.286324
H  -1873089.958950 4678232.774754  -216.673252
3
Step 235, Time 0.118 ps, Energy -119.889 kcal/mol
O    -23.188605 -592015.137495    20.561227
H  1881462.663724 4698254.309884  -108.749086
H  -1881094.613638 4698225.220030  -217.599206
3
Step 236, Time 0.118 ps, Energy -119.889 kcal/mol
O    -23.287280 -594534.350849    20.648722
H  1889468.884583 4718246.878947  -109.211848
H  -1889099.268327 4718217.665306  -218.525160
3
Step 237, Time 0.119 ps, Energy -119.889 kcal/mol
O    -23.385955 -597053.564203    20.736217
H  1897475.105442 4738239.448010  -109.674610
H  -1897103.923015 4738210.110583  -219.451114
3
Step 238, Time 0.119 ps, Energy -119.889 kcal/mol
O    -23.484629 -599572.777557    20.823711
H  1905481.326301 4758232.017073  -110.137372
H  -1905108.577703 4758202.555859  -220.377069
3
Step 239, Time 0.120 ps, Energy -119.889 kcal/mol
O    -23.583304 -602091.990912    20.911206
H  1913487.547160 4778224.586136  -110.600134
H  -1913113.232392 4778195.001135  -221.303023
3
Step 240, Time 0.120 ps, Energy -119.889 kcal/mol
O    -23.681979 -604611.204266    20.998700
H  1921493.768019 4798217.155199  -111.062896
H  -1921117.887080 4798187.446412  -222.228977
3
Step 241, Time 0.121 ps, Energy -119.889 kcal/mol
O    -23.780654 -607130.417620    21.086195
H  1929499.988878 4818209.724262  -111.525658
H  -1929122.541768 4818179.891688  -223.154931
3
Step 242, Time 0.121 ps, Energy -119.889 kcal/mol
O    -23.879329 -609649.630974    21.173690
H  1937506.209736 4838202.293325  -111.988420
H  -1937127.196457 4838172.336965  -224.080885
3
Step 243, Time 0.122 ps, Energy -119.889 kcal/mol
O    -23.978004 -612168.844328    21.261184
H  1945512.430595 4858194.862388  -112.451182
H  -1945131.851145 4858164.782241  -225.006839
3
Step 244, Time 0.122 ps, Energy -119.889 kcal/mol
O    -24.076679 -614688.057683    21.348679
H  1953518.651454 4878187.431451  -112.913945
H  -1953136.505833 4878157.227517  -225.932793
3
Step 245, Time 0.123 ps, Energy -119.889 kcal/mol
O    -24.175354 -617207.271037    21.436173
H  1961524.872313 4898180.000514  -113.376707
H  -1961141.160521 4898149.672794  -226.858747
3
Step 246, Time 0.123 ps, Energy -119.889 kcal/mol
O    -24.274029 -619726.484391    21.523668
H  1969531.093172 4918172.569577  -113.839469
H  -1969145.815210 4918142.118070  -227.784701
3
Step 247, Time 0.124 ps, Energy -119.889 kcal/mol
O    -24.372704 -622245.697745    21.611163
H  1977537.314031 4938165.138640  -114.302231
H  -1977150.469898 4938134.563347  -228.710655
3
Step 248, Time 0.124 ps, Energy -119.889 kcal/mol
O    -24.471379 -624764.911100    21.698657
H  1985543.534889 4958157.707703  -114.764993
H  -1985155.124586 4958127.008623  -229.636609
3
Step 249, Time 0.125 ps, Energy -119.889 kcal/mol
O    -24.570053 -627284.124454    21.786152
H  1993549.755748 4978150.276766  -115.227755
H  -1993159.779274 4978119.453900  -230.562563
3
Step 250, Time 0.126 ps, Energy -119.889 kcal/mol
O    -24.668728 -629803.337808    21.873646
H  2001555.976607 4998142.845829  -115.690517
H  -2001164.433962 4998111.899176  -231.488517
3
Step 251, Time 0.126 ps, Energy -119.889 kcal/mol
O    -24.767403 -632322.551162    21.961141
H  2009562.197466 5018135.414893  -116.153279
H  -2009169.088651 5018104.344453  -232.414471
3
Step 252, Time 0.127 ps, Energy -119.889 kcal/mol
O    -24.866078 -634841.764516    22.048635
H  2017568.418324 5038127.983956  -116.616041
H  -2017173.743339 5038096.789729  -233.340426
3
Step 253, Time 0.127 ps, Energy -119.889 kcal/mol
O    -24.964753 -637360.977871    22.136130
H  2025574.639183 5058120.553019  -117.078803
H  -2025178.398027 5058089.235006  -234.266380
3
Step 254, Time 0.128 ps, Energy -119.889 kcal/mol
O    -25.063428 -639880.191225    22.223625
H  2033580.860042 5078113.122082  -117.541565
H  -2033183.052715 5078081.680282  -235.192334
3
Step 255, Time 0.128 ps, Energy -119.889 kcal/mol
O    -25.162103 -642399.404579    22.311119
H  2041587.080900 5098105.691145  -118.004327
H  -2041187.707403 5098074.125559  -236.118288
3
Step 256, Time 0.129 ps, Energy -119.889 kcal/mol
O    -25.260778 -644918.617933    22.398614
H  2049593.301759 5118098.260209  -118.467089
H  -2049192.362091 5118066.570836  -237.044242
3
Step 257, Time 0.129 ps, Energy -119.889 kcal/mol
O    -25.359453 -647437.831288    22.486108
H  2057599.522618 5138090.829272  -118.929851
H  -2057197.016779 5138059.016112  -237.970196
3
Step 258, Time 0.130 ps, Energy -119.889 kcal/mol
O    -25.458128 -649957.044642    22.573603
H  2065605.743476 5158083.398335  -119.392613
H  -2065201.671467 5158051.461389  -238.896150
3
Step 259, Time 0.130 ps, Energy -119.889 kcal/mol
O    -25.556803 -652476.257996    22.661098
H  2073611.964335 5178075.967398  -119.855376
H  -2073206.326155 5178043.906666  -239.822104
3
Step 260, Time 0.131 ps, Energy -119.889 kcal/mol
O    -25.655478 -654995.471350    22.748592
H  2081618.185194 5198068.536462  -120.318138
H  -2081210.980843 5198036.351942  -240.748058
3
Step 261, Time 0.131 ps, Energy -119.889 kcal/mol
O    -25.754152 -657514.684705    22.836087
H  2089624.406052 5218061.105525  -120.780900
H  -2089215.635531 5218028.797219  -241.674012
3
Step 262, Time 0.132 ps, Energy -119.889 kcal/mol
O    -25.852827 -660033.898059    22.923581
H  2097630.626911 5238053.674588  -121.243662
H  -2097220.290219 5238021.242496  -242.599966
3
Step 263, Time 0.132 ps, Energy -119.889 kcal/mol
O    -25.951502 -662553.111413    23.011076
H  2105636.847770 5258046.243652  -121.706424
H  -2105224.944907 5258013.687772  -243.525920
3
Step 264, Time 0.133 ps, Energy -119.889 kcal/mol
O    -26.050177 -665072.324767    23.098570
H  2113643.068628 5278038.812715  -122.169186
H  -2113229.599596 5278006.133049  -244.451874
3
Step 265, Time 0.133 ps, Energy -119.889 kcal/mol
O    -26.148852 -667591.538122    23.186065
H  2121649.289487 5298031.381778  -122.631948
H  -2121234.254283 5297998.578326  -245.377828
3
Step 266, Time 0.134 ps, Energy -119.889 kcal/mol
O    -26.247527 -670110.751476    23.273560
H  2129655.510345 5318023.950842  -123.094710
H  -2129238.908971 5317991.023603  -246.303783
3
Step 267, Time 0.134 ps, Energy -119.889 kcal/mol
O    -26.346202 -672629.964830    23.361054
H  2137661.731204 5338016.519905  -123.557472
H  -2137243.563659 5337983.468879  -247.229737
3
Step 268, Time 0.135 ps, Energy -119.889 kcal/mol
O    -26.444877 -675149.178184    23.448549
H  2145667.952062 5358009.088968  -124.020234
H  -2145248.218347 5357975.914156  -248.155691
3
Step 269, Time 0.135 ps, Energy -119.889 kcal/mol
O    -26.543552 -677668.391539    23.536043
H  2153674.172921 5378001.658032  -124.482996
H  -2153252.873035 5377968.359433  -249.081645
3
Step 270, Time 0.136 ps, Energy -119.889 kcal/mol
O    -26.642227 -680187.604893    23.623538
H  2161680.393779 5397994.227095  -124.945758
H  -2161257.527723 5397960.804710  -250.007599
3
Step 271, Time 0.136 ps, Energy -119.889 kcal/mol
O    -26.740902 -682706.818247    23.711033
H  2169686.614638 5417986.796159  -125.408520
H  -2169262.182411 5417953.249987  -250.933553
3
Step 272, Time 0.137 ps, Energy -119.889 kcal/mol
O    -26.839577 -685226.031602    23.798527
H  2177692.835496 5437979.365222  -125.871282
H  -2177266.837099 5437945.695263  -251.859507
3
Step 273, Time 0.137 ps, Energy -119.889 kcal/mol
O    -26.938251 -687745.244956    23.886022
H  2185699.056355 5457971.934286  -126.334045
H  -2185271.491787 5457938.140540  -252.785461
3
Step 274, Time 0.138 ps, Energy -119.889 kcal/mol
O    -27.036926 -690264.458310    23.973516
H  2193705.277213 5477964.503349  -126.796807
H  -2193276.146475 5477930.585817  -253.711415
3
Step 275, Time 0.138 ps, Energy -119.889 kcal/mol
O    -27.135601 -692783.671664    24.061011
H  2201711.498072 5497957.072413  -127.259569
H  -2201280.801163 5497923.031094  -254.637369
3
Step 276, Time 0.139 ps, Energy -119.889 kcal/mol
O    -27.234276 -695302.885019    24.148505
H  2209717.718930 5517949.641476  -127.722331
H  -2209285.455851 5517915.476371  -255.563323
3
Step 277, Time 0.139 ps, Energy -119.889 kcal/mol
O    -27.332951 -697822.098373    24.236000
H  2217723.939789 5537942.210540  -128.185093
H  -2217290.110539 5537907.921648  -256.489277
3
Step 278, Time 0.140 ps, Energy -119.889 kcal/mol
O    -27.431626 -700341.311727    24.323495
H  2225730.160647 5557934.779603  -128.647855
H  -2225294.765226 5557900.366925  -257.415231
3
Step 279, Time 0.140 ps, Energy -119.889 kcal/mol
O    -27.530301 -702860.525082    24.410989
H  2233736.381506 5577927.348667  -129.110617
H  -2233299.419914 5577892.812202  -258.341185
3
Step 280, Time 0.141 ps, Energy -119.889 kcal/mol
O    -27.628976 -705379.738436    24.498484
H  2241742.602364 5597919.917730  -129.573379
H  -2241304.074602 5597885.257479  -259.267139
3
Step 281, Time 0.141 ps, Energy -119.889 kcal/mol
O    -27.727651 -707898.951790    24.585978
H  2249748.823222 5617912.486794  -130.036141
H  -2249308.729290 5617877.702756  -260.193094
3
Step 282, Time 0.141 ps, Energy -119.889 kcal/mol
O    -27.826326 -710418.165144    24.673473
H  2257755.044081 5637905.055857  -130.498903
H  -2257313.383978 5637870.148033  -261.119048
3
Step 283, Time 0.142 ps, Energy -119.889 kcal/mol
O    -27.925001 -712937.378499    24.760968
H  2265761.264939 5657897.624921  -130.961665
H  -2265318.038665 5657862.593310  -262.045002
3
Step 284, Time 0.142 ps, Energy -119.889 kcal/mol
O    -28.023675 -715456.591853    24.848462
H  2273767.485797 5677890.193984  -131.424427
H  -2273322.693353 5677855.038587  -262.970956
3
Step 285, Time 0.143 ps, Energy -119.889 kcal/mol
O    -28.122350 -717975.805207    24.935957
H  2281773.706656 5697882.763048  -131.887189
H  -2281327.348041 5697847.483864  -263.896910
3
Step 286, Time 0.143 ps, Energy -119.889 kcal/mol
O    -28.221025 -720495.018562    25.023451
H  2289779.927514 5717875.332112  -132.349951
H  -2289332.002729 5717839.929141  -264.822864
3
Step 287, Time 0.144 ps, Energy -119.889 kcal/mol
O    -28.319700 -723014.231916    25.110946
H  2297786.148372 5737867.901175  -132.812713
H  -2297336.657417 5737832.374418  -265.748818
3
Step 288, Time 0.144 ps, Energy -119.889 kcal/mol
O    -28.418375 -725533.445270    25.198441
H  2305792.369231 5757860.470239  -133.275476
H  -2305341.312104 5757824.819695  -266.674772
3
Step 289, Time 0.145 ps, Energy -119.889 kcal/mol
O    -28.517050 -728052.658624    25.285935
H  2313798.590089 5777853.039303  -133.738238
H  -2313345.966792 5777817.264972  -267.600726
3
Step 290, Time 0.145 ps, Energy -119.889 kcal/mol
O    -28.615725 -730571.871979    25.373430
H  2321804.810947 5797845.608366  -134.201000
H  -2321350.621480 5797809.710249  -268.526680
3
Step 291, Time 0.146 ps, Energy -119.889 kcal/mol
O    -28.714400 -733091.085333    25.460924
H  2329811.031806 5817838.177430  -134.663762
H  -2329355.276167 5817802.155526  -269.452634
3
Step 292, Time 0.146 ps, Energy -119.889 kcal/mol
O    -28.813075 -735610.298687    25.548419
H  2337817.252664 5837830.746494  -135.126524
H  -2337359.930855 5837794.600803  -270.378588
3
Step 293, Time 0.147 ps, Energy -119.889 kcal/mol
O    -28.911750 -738129.512042    25.635913
H  2345823.473522 5857823.315557  -135.589286
H  -2345364.585543 5857787.046080  -271.304542
3
Step 294, Time 0.147 ps, Energy -119.889 kcal/mol
O    -29.010425 -740648.725396    25.723408
H  2353829.694381 5877815.884621  -136.052048
H  -2353369.240231 5877779.491357  -272.230496
3
Step 295, Time 0.148 ps, Energy -119.889 kcal/mol
O    -29.109100 -743167.938750    25.810903
H  2361835.915239 5897808.453685  -136.514810
H  -2361373.894918 5897771.936634  -273.156451
3
Step 296, Time 0.148 ps, Energy -119.889 kcal/mol
O    -29.207774 -745687.152105    25.898397
H  2369842.136097 5917801.022749  -136.977572
H  -2369378.549606 5917764.381911  -274.082405
3
Step 297, Time 0.149 ps, Energy -119.889 kcal/mol
O    -29.306449 -748206.365459    25.985892
H  2377848.356955 5937793.591812  -137.440334
H  -2377383.204294 5937756.827188  -275.008359
3
Step 298, Time 0.149 ps, Energy -119.889 kcal/mol
O    -29.405124 -750725.578813    26.073386
H  2385854.577814 5957786.160876  -137.903096
H  -2385387.858981 5957749.272466  -275.934313
3
Step 299, Time 0.150 ps, Energy -119.889 kcal/mol
O    -29.503799 -753244.792168    26.160881
H  2393860.798672 5977778.729940  -138.365858
H  -2393392.513669 5977741.717743  -276.860267
3
Step 300, Time 0.150 ps, Energy -119.889 kcal/mol
O    -29.602474 -755764.005522    26.248376
H  2401867.019530 5997771.299004  -138.828620
H  -2401397.168357 5997734.163020  -277.786221
3
Step 301, Time 0.151 ps, Energy -119.889 kcal/mol
O    -29.701149 -758283.218876    26.335870
H  2409873.240388 6017763.868067  -139.291382
H  -2409401.823044 6017726.608297  -278.712175
3
Step 302, Time 0.151 ps, Energy -119.889 kcal/mol
O    -29.799824 -760802.432230    26.423365
H  2417879.461246 6037756.437131  -139.754145
H  -2417406.477732 6037719.053574  -279.638129
3
Step 303, Time 0.152 ps, Energy -119.889 kcal/mol
O    -29.898499 -763321.645585    26.510859
H  2425885.682105 6057749.006195  -140.216907
H  -2425411.132419 6057711.498852  -280.564083
3
Step 304, Time 0.152 ps, Energy -119.889 kcal/mol
O    -29.997174 -765840.858939    26.598354
H  2433891.902963 6077741.575259  -140.679669
H  -2433415.787107 6077703.944129  -281.490037
3
Step 305, Time 0.153 ps, Energy -119.889 kcal/mol
O    -30.095849 -768360.072293    26.685848
H  2441898.123821 6097734.144323  -141.142431
H  -2441420.441795 6097696.389406  -282.415991
3
Step 306, Time 0.153 ps, Energy -119.889 kcal/mol
O    -30.194524 -770879.285648    26.773343
H  2449904.344679 6117726.713387  -141.605193
H  -2449425.096482 6117688.834683  -283.341945
3
Step 307, Time 0.154 ps, Energy -119.889 kcal/mol
O    -30.293198 -773398.499002    26.860838
H  2457910.565537 6137719.282450  -142.067955
H  -2457429.751170 6137681.279960  -284.267899
3
Step 308, Time 0.154 ps, Energy -119.889 kcal/mol
O    -30.391873 -775917.712356    26.948332
H  2465916.786395 6157711.851514  -142.530717
H  -2465434.405857 6157673.725238  -285.193853
3
Step 309, Time 0.155 ps, Energy -119.889 kcal/mol
O    -30.490548 -778436.925711    27.035827
H  2473923.007254 6177704.420578  -142.993479
H  -2473439.060545 6177666.170515  -286.119808
3
Step 310, Time 0.155 ps, Energy -119.889 kcal/mol
O    -30.589223 -780956.139065    27.123321
H  2481929.228112 6197696.989642  -143.456241
H  -2481443.715232 6197658.615792  -287.045762
3
Step 311, Time 0.156 ps, Energy -119.889 kcal/mol
O    -30.687898 -783475.352419    27.210816
H  2489935.448970 6217689.558706  -143.919003
H  -2489448.369920 6217651.061070  -287.971716
3
Step 312, Time 0.157 ps, Energy -119.889 kcal/mol
O    -30.786573 -785994.565774    27.298311
H  2497941.669828 6237682.127770  -144.381765
H  -2497453.024607 6237643.506347  -288.897670
3
Step 313, Time 0.157 ps, Energy -119.889 kcal/mol
O    -30.885248 -788513.779128    27.385805
H  2505947.890686 6257674.696834  -144.844527
H  -2505457.679295 6257635.951624  -289.823624
3
Step 314, Time 0.158 ps, Energy -119.889 kcal/mol
O    -30.983923 -791032.992482    27.473300
H  2513954.111544 6277667.265898  -145.307289
H  -2513462.333982 6277628.396902  -290.749578
3
Step 315, Time 0.158 ps, Energy -119.889 kcal/mol
O    -31.082598 -793552.205837    27.560794
H  2521960.332402 6297659.834962  -145.770051
H  -2521466.988670 6297620.842179  -291.675532
3
Step 316, Time 0.159 ps, Energy -119.889 kcal/mol
O    -31.181273 -796071.419191    27.648289
H  2529966.553260 6317652.404026  -146.232813
H  -2529471.643358 6317613.287456  -292.601486
3
Step 317, Time 0.159 ps, Energy -119.889 kcal/mol
O    -31.279948 -798590.632545    27.735783
H  2537972.774118 6337644.973090  -146.695576
H  -2537476.298045 6337605.732734  -293.527440
3
Step 318, Time 0.160 ps, Energy -119.889 kcal/mol
O    -31.378623 -801109.845900    27.823278
H  2545978.994976 6357637.542154  -147.158338
H  -2545480.952732 6357598.178011  -294.453394
3
Step 319, Time 0.160 ps, Energy -119.889 kcal/mol
O    -31.477297 -803629.059254    27.910773
H  2553985.215834 6377630.111218  -147.621100
H  -2553485.607420 6377590.623288  -295.379348
3
Step 320, Time 0.161 ps, Energy -119.889 kcal/mol
O    -31.575972 -806148.272608    27.998267
H  2561991.436692 6397622.680282  -148.083862
H  -2561490.262107 6397583.068566  -296.305302
3
Step 321, Time 0.161 ps, Energy -119.889 kcal/mol
O    -31.674647 -808667.485963    28.085762
H  2569997.657551 6417615.249346  -148.546624
H  -2569494.916795 6417575.513843  -297.231256
3
Step 322, Time 0.162 ps, Energy -119.889 kcal/mol
O    -31.773322 -811186.699317    28.173256
H  2578003.878409 6437607.818410  -149.009386
H  -2577499.571482 6437567.959120  -298.157210
3
Step 323, Time 0.162 ps, Energy -119.889 kcal/mol
O    -31.871997 -813705.912671    28.260751
H  2586010.099267 6457600.387474  -149.472148
H  -2585504.226170 6457560.404398  -299.083164
3
Step 324, Time 0.163 ps, Energy -119.889 kcal/mol
O    -31.970672 -816225.126026    28.348246
H  2594016.320125 6477592.956538  -149.934910
H  -2593508.880857 6477552.849675  -300.009119
3
Step 325, Time 0.163 ps, Energy -119.889 kcal/mol
O    -32.069347 -818744.339380    28.435740
H  2602022.540983 6497585.525602  -150.397672
H  -2601513.535545 6497545.294953  -300.935073
3
Step 326, Time 0.164 ps, Energy -119.889 kcal/mol
O    -32.168022 -821263.552734    28.523235
H  2610028.761841 6517578.094666  -150.860434
H  -2609518.190232 6517537.740230  -301.861027
3
Step 327, Time 0.164 ps, Energy -119.889 kcal/mol
O    -32.266697 -823782.766089    28.610729
H  2618034.982699 6537570.663730  -151.323196
H  -2617522.844919 6537530.185508  -302.786981
3
Step 328, Time 0.165 ps, Energy -119.889 kcal/mol
O    -32.365372 -826301.979443    28.698224
H  2626041.203557 6557563.232794  -151.785958
H  -2625527.499607 6557522.630785  -303.712935
3
Step 329, Time 0.165 ps, Energy -119.889 kcal/mol
O    -32.464047 -828821.192798    28.785718
H  2634047.424415 6577555.801858  -152.248720
H  -2633532.154294 6577515.076062  -304.638889
3
Step 330, Time 0.166 ps, Energy -119.889 kcal/mol
O    -32.562721 -831340.406152    28.873213
H  2642053.645272 6597548.370922  -152.711482
H  -2641536.808982 6597507.521340  -305.564843
3
Step 331, Time 0.166 ps, Energy -119.889 kcal/mol
O    -32.661396 -833859.619506    28.960708
H  2650059.866130 6617540.939986  -153.174245
H  -2649541.463669 6617499.966617  -306.490797
3
Step 332, Time 0.167 ps, Energy -119.889 kcal/mol
O    -32.760071 -836378.832861    29.048202
H  2658066.086988 6637533.509050  -153.637007
H  -2657546.118356 6637492.411895  -307.416751
3
Step 333, Time 0.167 ps, Energy -119.889 kcal/mol
O    -32.858746 -838898.046215    29.135697
H  2666072.307846 6657526.078114  -154.099769
H  -2665550.773044 6657484.857172  -308.342705
3
Step 334, Time 0.168 ps, Energy -119.889 kcal/mol
O    -32.957421 -841417.259569    29.223191
H  2674078.528704 6677518.647178  -154.562531
H  -2673555.427731 6677477.302450  -309.268659
3
Step 335, Time 0.168 ps, Energy -119.889 kcal/mol
O    -33.056096 -843936.472924    29.310686
H  2682084.749562 6697511.216243  -155.025293
H  -2681560.082418 6697469.747727  -310.194613
3
Step 336, Time 0.169 ps, Energy -119.889 kcal/mol
O    -33.154771 -846455.686278    29.398181
H  2690090.970420 6717503.785307  -155.488055
H  -2689564.737106 6717462.193005  -311.120567
3
Step 337, Time 0.169 ps, Energy -119.889 kcal/mol
O    -33.253446 -848974.899632    29.485675
H  2698097.191278 6737496.354371  -155.950817
H  -2697569.391793 6737454.638282  -312.046521
3
Step 338, Time 0.170 ps, Energy -119.889 kcal/mol
O    -33.352121 -851494.112987    29.573170
H  2706103.412136 6757488.923435  -156.413579
H  -2705574.046481 6757447.083560  -312.972476
3
Step 339, Time 0.170 ps, Energy -119.889 kcal/mol
O    -33.450796 -854013.326341    29.660664
H  2714109.632994 6777481.492499  -156.876341
H  -2713578.701168 6777439.528838  -313.898430
3
Step 340, Time 0.171 ps, Energy -119.889 kcal/mol
O    -33.549471 -856532.539695    29.748159
H  2722115.853852 6797474.061563  -157.339103
H  -2721583.355855 6797431.974115  -314.824384
3
Step 341, Time 0.171 ps, Energy -119.889 kcal/mol
O    -33.648146 -859051.753050    29.835654
H  2730122.074710 6817466.630627  -157.801865
H  -2729588.010542 6817424.419393  -315.750338
3
Step 342, Time 0.172 ps, Energy -119.889 kcal/mol
O    -33.746820 -861570.966404    29.923148
H  2738128.295568 6837459.199692  -158.264627
H  -2737592.665230 6837416.864670  -316.676292
3
Step 343, Time 0.172 ps, Energy -119.889 kcal/mol
O    -33.845495 -864090.179759    30.010643
H  2746134.516425 6857451.768756  -158.727389
H  -2745597.319917 6857409.309948  -317.602246
3
Step 344, Time 0.172 ps, Energy -119.889 kcal/mol
O    -33.944170 -866609.393113    30.098137
H  2754140.737283 6877444.337820  -159.190151
H  -2753601.974604 6877401.755225  -318.528200
3
Step 345, Time 0.173 ps, Energy -119.889 kcal/mol
O    -34.042845 -869128.606467    30.185632
H  2762146.958141 6897436.906884  -159.652913
H  -2761606.629292 6897394.200503  -319.454154
3
Step 346, Time 0.173 ps, Energy -119.889 kcal/mol
O    -34.141520 -871647.819822    30.273126
H  2770153.178999 6917429.475948  -160.115676
H  -2769611.283979 6917386.645781  -320.380108
3
Step 347, Time 0.174 ps, Energy -119.889 kcal/mol
O    -34.240195 -874167.033176    30.360621
H  2778159.399857 6937422.045013  -160.578438
H  -2777615.938666 6937379.091058  -321.306062
3
Step 348, Time 0.174 ps, Energy -119.889 kcal/mol
O    -34.338870 -876686.246530    30.448116
H  2786165.620715 6957414.614077  -161.041200
H  -2785620.593353 6957371.536336  -322.232016
3
Step 349, Time 0.175 ps, Energy -119.889 kcal/mol
O    -34.437545 -879205.459885    30.535610
H  2794171.841573 6977407.183141  -161.503962
H  -2793625.248041 6977363.981614  -323.157970
3
Step 350, Time 0.175 ps, Energy -119.889 kcal/mol
O    -34.536220 -881724.673239    30.623105
H  2802178.062430 6997399.752205  -161.966724
H  -2801629.902728 6997356.426891  -324.083924
3
Step 351, Time 0.176 ps, Energy -119.889 kcal/mol
O    -34.634895 -884243.886594    30.710599
H  2810184.283288 7017392.321270  -162.429486
H  -2809634.557415 7017348.872169  -325.009878
3
Step 352, Time 0.176 ps, Energy -119.889 kcal/mol
O    -34.733570 -886763.099948    30.798094
H  2818190.504146 7037384.890334  -162.892248
H  -2817639.212102 7037341.317447  -325.935833
3
Step 353, Time 0.177 ps, Energy -119.889 kcal/mol
O    -34.832245 -889282.313302    30.885589
H  2826196.725004 7057377.459398  -163.355010
H  -2825643.866790 7057333.762724  -326.861787
3
Step 354, Time 0.177 ps, Energy -119.889 kcal/mol
O    -34.930919 -891801.526657    30.973083
H  2834202.945862 7077370.028463  -163.817772
H  -2833648.521477 7077326.208002  -327.787741
3
Step 355, Time 0.178 ps, Energy -119.889 kcal/mol
O    -35.029594 -894320.740011    31.060578
H  2842209.166719 7097362.597527  -164.280534
H  -2841653.176164 7097318.653280  -328.713695
3
Step 356, Time 0.178 ps, Energy -119.889 kcal/mol
O    -35.128269 -896839.953365    31.148072
H  2850215.387577 7117355.166591  -164.743296
H  -2849657.830851 7117311.098557  -329.639649
3
Step 357, Time 0.179 ps, Energy -119.889 kcal/mol
O    -35.226944 -899359.166720    31.235567
H  2858221.608435 7137347.735655  -165.206058
H  -2857662.485539 7137303.543835  -330.565603
3
Step 358, Time 0.179 ps, Energy -119.889 kcal/mol
O    -35.325619 -901878.380074    31.323061
H  2866227.829293 7157340.304720  -165.668820
H  -2865667.140226 7157295.989113  -331.491557
3
Step 359, Time 0.180 ps, Energy -119.889 kcal/mol
O    -35.424294 -904397.593429    31.410556
H  2874234.050151 7177332.873784  -166.131582
H  -2873671.794913 7177288.434390  -332.417511
3
Step 360, Time 0.180 ps, Energy -119.889 kcal/mol
O    -35.522969 -906916.806783    31.498051
H  2882240.271008 7197325.442848  -166.594345
H  -2881676.449600 7197280.879668  -333.343465
3
Step 361, Time 0.181 ps, Energy -119.889 kcal/mol
O    -35.621644 -909436.020137    31.585545
H  2890246.491866 7217318.011913  -167.057107
H  -2889681.104287 7217273.324946  -334.269419
3
Step 362, Time 0.181 ps, Energy -119.889 kcal/mol
O    -35.720319 -911955.233492    31.673040
H  2898252.712724 7237310.580977  -167.519869
H  -2897685.758974 7237265.770223  -335.195373
3
Step 363, Time 0.182 ps, Energy -119.889 kcal/mol
O    -35.818994 -914474.446846    31.760534
H  2906258.933582 7257303.150041  -167.982631
H  -2905690.413662 7257258.215501  -336.121327
3
Step 364, Time 0.182 ps, Energy -119.889 kcal/mol
O    -35.917669 -916993.660201    31.848029
H  2914265.154439 7277295.719106  -168.445393
H  -2913695.068349 7277250.660779  -337.047281
3
Step 365, Time 0.183 ps, Energy -119.889 kcal/mol
O    -36.016343 -919512.873555    31.935524
H  2922271.375297 7297288.288170  -168.908155
H  -2921699.723036 7297243.106057  -337.973235
3
Step 366, Time 0.183 ps, Energy -119.889 kcal/mol
O    -36.115018 -922032.086909    32.023018
H  2930277.596155 7317280.857235  -169.370917
H  -2929704.377723 7317235.551335  -338.899190
3
Step 367, Time 0.184 ps, Energy -119.889 kcal/mol
O    -36.213693 -924551.300264    32.110513
H  2938283.817012 7337273.426299  -169.833679
H  -2937709.032410 7337227.996612  -339.825144
3
Step 368, Time 0.184 ps, Energy -119.889 kcal/mol
O    -36.312368 -927070.513618    32.198007
H  2946290.037870 7357265.995363  -170.296441
H  -2945713.687097 7357220.441890  -340.751098
3
Step 369, Time 0.185 ps, Energy -119.889 kcal/mol
O    -36.411043 -929589.726972    32.285502
H  2954296.258728 7377258.564428  -170.759203
H  -2953718.341784 7377212.887168  -341.677052
3
Step 370, Time 0.185 ps, Energy -119.889 kcal/mol
O    -36.509718 -932108.940327    32.372996
H  2962302.479586 7397251.133492  -171.221965
H  -2961722.996472 7397205.332446  -342.603006
3
Step 371, Time 0.186 ps, Energy -119.889 kcal/mol
O    -36.608393 -934628.153681    32.460491
H  2970308.700443 7417243.702556  -171.684727
H  -2969727.651159 7417197.777723  -343.528960
3
Step 372, Time 0.186 ps, Energy -119.889 kcal/mol
O    -36.707068 -937147.367036    32.547986
H  2978314.921301 7437236.271621  -172.147489
H  -2977732.305846 7437190.223001  -344.454914
3
Step 373, Time 0.187 ps, Energy -119.889 kcal/mol
O    -36.805743 -939666.580390    32.635480
H  2986321.142159 7457228.840685  -172.610251
H  -2985736.960533 7457182.668279  -345.380868
3
Step 374, Time 0.188 ps, Energy -119.889 kcal/mol
O    -36.904418 -942185.793744    32.722975
H  2994327.363016 7477221.409750  -173.073014
H  -2993741.615220 7477175.113557  -346.306822
3
Step 375, Time 0.188 ps, Energy -119.889 kcal/mol
O    -37.003093 -944705.007099    32.810469
H  3002333.583874 7497213.978814  -173.535776
H  -3001746.269907 7497167.558835  -347.232776
3
Step 376, Time 0.189 ps, Energy -119.889 kcal/mol
O    -37.101768 -947224.220453    32.897964
H  3010339.804732 7517206.547879  -173.998538
H  -3009750.924594 7517160.004113  -348.158730
3
Step 377, Time 0.189 ps, Energy -119.889 kcal/mol
O    -37.200442 -949743.433808    32.985459
H  3018346.025589 7537199.116943  -174.461300
H  -3017755.579281 7537152.449390  -349.084684
3
Step 378, Time 0.190 ps, Energy -119.889 kcal/mol
O    -37.299117 -952262.647162    33.072953
H  3026352.246447 7557191.686008  -174.924062
H  -3025760.233968 7557144.894668  -350.010638
3
Step 379, Time 0.190 ps, Energy -119.889 kcal/mol
O    -37.397792 -954781.860516    33.160448
H  3034358.467305 7577184.255072  -175.386824
H  -3033764.888655 7577137.339946  -350.936592
3
Step 380, Time 0.191 ps, Energy -119.889 kcal/mol
O    -37.496467 -957301.073871    33.247942
H  3042364.688162 7597176.824137  -175.849586
H  -3041769.543343 7597129.785224  -351.862546
3
Step 381, Time 0.191 ps, Energy -119.889 kcal/mol
O    -37.595142 -959820.287225    33.335437
H  3050370.909020 7617169.393201  -176.312348
H  -3049774.198030 7617122.230502  -352.788501
3
Step 382, Time 0.192 ps, Energy -119.889 kcal/mol
O    -37.693817 -962339.500580    33.422932
H  3058377.129878 7637161.962265  -176.775110
H  -3057778.852717 7637114.675780  -353.714455
3
Step 383, Time 0.192 ps, Energy -119.889 kcal/mol
O    -37.792492 -964858.713934    33.510426
H  3066383.350735 7657154.531330  -177.237872
H  -3065783.507404 7657107.121058  -354.640409
3
Step 384, Time 0.193 ps, Energy -119.889 kcal/mol
O    -37.891167 -967377.927288    33.597921
H  3074389.571593 7677147.100394  -177.700634
H  -3073788.162091 7677099.566335  -355.566363
3
Step 385, Time 0.193 ps, Energy -119.889 kcal/mol
O    -37.989842 -969897.140643    33.685415
H  3082395.792450 7697139.669459  -178.163396
H  -3081792.816778 7697092.011613  -356.492317
3
Step 386, Time 0.194 ps, Energy -119.889 kcal/mol
O    -38.088517 -972416.353997    33.772910
H  3090402.013308 7717132.238523  -178.626158
H  -3089797.471465 7717084.456891  -357.418271
3
Step 387, Time 0.194 ps, Energy -119.889 kcal/mol
O    -38.187192 -974935.567352    33.860404
H  3098408.234166 7737124.807588  -179.088920
H  -3097802.126152 7737076.902169  -358.344225
3
Step 388, Time 0.195 ps, Energy -119.889 kcal/mol
O    -38.285866 -977454.780706    33.947899
H  3106414.455023 7757117.376653  -179.551682
H  -3105806.780839 7757069.347447  -359.270179
3
Step 389, Time 0.195 ps, Energy -119.889 kcal/mol
O    -38.384541 -979973.994060    34.035394
H  3114420.675881 7777109.945717  -180.014445
H  -3113811.435526 7777061.792725  -360.196133
3
Step 390, Time 0.196 ps, Energy -119.889 kcal/mol
O    -38.483216 -982493.207415    34.122888
H  3122426.896739 7797102.514782  -180.477207
H  -3121816.090213 7797054.238003  -361.122087
3
Step 391, Time 0.196 ps, Energy -119.889 kcal/mol
O    -38.581891 -985012.420769    34.210383
H  3130433.117596 7817095.083846  -180.939969
H  -3129820.744900 7817046.683281  -362.048041
3
Step 392, Time 0.197 ps, Energy -119.889 kcal/mol
O    -38.680566 -987531.634124    34.297877
H  3138439.338454 7837087.652911  -181.402731
H  -3137825.399587 7837039.128559  -362.973995
3
Step 393, Time 0.197 ps, Energy -119.889 kcal/mol
O    -38.779241 -990050.847478    34.385372
H  3146445.559311 7857080.221975  -181.865493
H  -3145830.054274 7857031.573837  -363.899949
3
Step 394, Time 0.198 ps, Energy -119.889 kcal/mol
O    -38.877916 -992570.060833    34.472867
H  3154451.780169 7877072.791040  -182.328255
H  -3153834.708961 7877024.019115  -364.825903
3
Step 395, Time 0.198 ps, Energy -119.889 kcal/mol
O    -38.976591 -995089.274187    34.560361
H  3162458.001026 7897065.360104  -182.791017
H  -3161839.363648 7897016.464393  -365.751858
3
Step 396, Time 0.199 ps, Energy -119.889 kcal/mol
O    -39.075266 -997608.487541    34.647856
H  3170464.221884 7917057.929169  -183.253779
H  -3169844.018335 7917008.909671  -366.677812
3
Step 397, Time 0.199 ps, Energy -119.889 kcal/mol
O    -39.173941 -1000127.700896    34.735350
H  3178470.442741 7937050.498234  -183.716541
H  -3177848.673022 7937001.354949  -367.603766
3
Step 398, Time 0.200 ps, Energy -119.889 kcal/mol
O    -39.272616 -1002646.914250    34.822845
H  3186476.663599 7957043.067298  -184.179303
H  -3185853.327709 7956993.800227  -368.529720
3
Step 399, Time 0.200 ps, Energy -119.889 kcal/mol
O    -39.371291 -1005166.127605    34.910339
H  3194482.884457 7977035.636363  -184.642065
H  -3193857.982396 7976986.245505  -369.455674
3
Step 400, Time 0.201 ps, Energy -119.889 kcal/mol
O    -39.469965 -1007685.340959    34.997834
H  3202489.105314 7997028.205427  -185.104827
H  -3201862.637083 7996978.690783  -370.381628
3
Step 401, Time 0.201 ps, Energy -119.889 kcal/mol
O    -39.568640 -1010204.554313    35.085329
H  3210495.326172 8017020.774492  -185.567589
H  -3209867.291770 8016971.136061  -371.307582
3
Step 402, Time 0.202 ps, Energy -119.889 kcal/mol
O    -39.667315 -1012723.767668    35.172823
H  3218501.547029 8037013.343557  -186.030351
H  -3217871.946457 8036963.581339  -372.233536
3
Step 403, Time 0.202 ps, Energy -119.889 kcal/mol
O    -39.765990 -1015242.981022    35.260318
H  3226507.767887 8057005.912621  -186.493114
H  -3225876.601144 8056956.026617  -373.159490
3
Step 404, Time 0.203 ps, Energy -119.889 kcal/mol
O    -39.864665 -1017762.194377    35.347812
H  3234513.988744 8076998.481686  -186.955876
H  -3233881.255831 8076948.471895  -374.085444
3
Step 405, Time 0.203 ps, Energy -119.889 kcal/mol
O    -39.963340 -1020281.407731    35.435307
H  3242520.209602 8096991.050750  -187.418638
H  -3241885.910517 8096940.917173  -375.011398
3
Step 406, Time 0.203 ps, Energy -119.889 kcal/mol
O    -40.062015 -1022800.621086    35.522802
H  3250526.430459 8116983.619815  -187.881400
H  -3249890.565204 8116933.362451  -375.937352
3
Step 407, Time 0.204 ps, Energy -119.889 kcal/mol
O    -40.160690 -1025319.834440    35.610296
H  3258532.651317 8136976.188880  -188.344162
H  -3257895.219891 8136925.807729  -376.863306
3
Step 408, Time 0.204 ps, Energy -119.889 kcal/mol
O    -40.259365 -1027839.047794    35.697791
H  3266538.872174 8156968.757944  -188.806924
H  -3265899.874578 8156918.253007  -377.789260
3
Step 409, Time 0.205 ps, Energy -119.889 kcal/mol
O    -40.358040 -1030358.261149    35.785285
H  3274545.093032 8176961.327009  -189.269686
H  -3273904.529265 8176910.698285  -378.715215
3
Step 410, Time 0.205 ps, Energy -119.889 kcal/mol
O    -40.456715 -1032877.474503    35.872780
H  3282551.313889 8196953.896074  -189.732448
H  -3281909.183952 8196903.143563  -379.641169
3
Step 411, Time 0.206 ps, Energy -119.889 kcal/mol
O    -40.555390 -1035396.687858    35.960274
H  3290557.534747 8216946.465138  -190.195210
H  -3289913.838639 8216895.588841  -380.567123
3
Step 412, Time 0.206 ps, Energy -119.889 kcal/mol
O    -40.654064 -1037915.901212    36.047769
H  3298563.755604 8236939.034203  -190.657972
H  -3297918.493326 8236888.034119  -381.493077
3
Step 413, Time 0.207 ps, Energy -119.889 kcal/mol
O    -40.752739 -1040435.114567    36.135264
H  3306569.976462 8256931.603268  -191.120734
H  -3305923.148013 8256880.479397  -382.419031
3
Step 414, Time 0.207 ps, Energy -119.889 kcal/mol
O    -40.851414 -1042954.327921    36.222758
H  3314576.197319 8276924.172332  -191.583496
H  -3313927.802700 8276872.924675  -383.344985
3
Step 415, Time 0.208 ps, Energy -119.889 kcal/mol
O    -40.950089 -1045473.541275    36.310253
H  3322582.418177 8296916.741397  -192.046258
H  -3321932.457387 8296865.369953  -384.270939
3
Step 416, Time 0.208 ps, Energy -119.889 kcal/mol
O    -41.048764 -1047992.754630    36.397747
H  3330588.639034 8316909.310462  -192.509020
H  -3329937.112073 8316857.815231  -385.196893
3
Step 417, Time 0.209 ps, Energy -119.889 kcal/mol
O    -41.147439 -1050511.967984    36.485242
H  3338594.859892 8336901.879526  -192.971782
H  -3337941.766760 8336850.260509  -386.122847
3
Step 418, Time 0.209 ps, Energy -119.889 kcal/mol
O    -41.246114 -1053031.181339    36.572737
H  3346601.080749 8356894.448591  -193.434545
H  -3345946.421447 8356842.705787  -387.048801
3
Step 419, Time 0.210 ps, Energy -119.889 kcal/mol
O    -41.344789 -1055550.394693    36.660231
H  3354607.301606 8376887.017656  -193.897307
H  -3353951.076134 8376835.151066  -387.974755
3
Step 420, Time 0.210 ps, Energy -119.889 kcal/mol
O    -41.443464 -1058069.608048    36.747726
H  3362613.522464 8396879.586721  -194.360069
H  -3361955.730821 8396827.596344  -388.900709
3
Step 421, Time 0.211 ps, Energy -119.889 kcal/mol
O    -41.542139 -1060588.821402    36.835220
H  3370619.743321 8416872.155785  -194.822831
H  -3369960.385508 8416820.041622  -389.826663
3
Step 422, Time 0.211 ps, Energy -119.889 kcal/mol
O    -41.640814 -1063108.034756    36.922715
H  3378625.964179 8436864.724850  -195.285593
H  -3377965.040195 8436812.486900  -390.752617
3
Step 423, Time 0.212 ps, Energy -119.889 kcal/mol
O    -41.739488 -1065627.248111    37.010209
H  3386632.185036 8456857.293915  -195.748355
H  -3385969.694881 8456804.932178  -391.678571
3
Step 424, Time 0.212 ps, Energy -119.889 kcal/mol
O    -41.838163 -1068146.461465    37.097704
H  3394638.405894 8476849.862980  -196.211117
H  -3393974.349568 8476797.377456  -392.604526
3
Step 425, Time 0.213 ps, Energy -119.889 kcal/mol
O    -41.936838 -1070665.674820    37.185199
H  3402644.626751 8496842.432044  -196.673879
H  -3401979.004255 8496789.822734  -393.530480
3
Step 426, Time 0.213 ps, Energy -119.889 kcal/mol
O    -42.035513 -1073184.888174    37.272693
H  3410650.847608 8516835.001109  -197.136641
H  -3409983.658942 8516782.268012  -394.456434
3
Step 427, Time 0.214 ps, Energy -119.889 kcal/mol
O    -42.134188 -1075704.101529    37.360188
H  3418657.068466 8536827.570174  -197.599403
H  -3417988.313629 8536774.713291  -395.382388
3
Step 428, Time 0.214 ps, Energy -119.889 kcal/mol
O    -42.232863 -1078223.314883    37.447682
H  3426663.289323 8556820.139239  -198.062165
H  -3425992.968316 8556767.158569  -396.308342
3
Step 429, Time 0.215 ps, Energy -119.889 kcal/mol
O    -42.331538 -1080742.528237    37.535177
H  3434669.510181 8576812.708303  -198.524927
H  -3433997.623003 8576759.603847  -397.234296
3
Step 430, Time 0.215 ps, Energy -119.889 kcal/mol
O    -42.430213 -1083261.741592    37.622672
H  3442675.731038 8596805.277368  -198.987689
H  -3442002.277689 8596752.049125  -398.160250
3
Step 431, Time 0.216 ps, Energy -119.889 kcal/mol
O    -42.528888 -1085780.954946    37.710166
H  3450681.951895 8616797.846433  -199.450451
H  -3450006.932376 8616744.494403  -399.086204
3
Step 432, Time 0.216 ps, Energy -119.889 kcal/mol
O    -42.627563 -1088300.168301    37.797661
H  3458688.172753 8636790.415498  -199.913214
H  -3458011.587063 8636736.939681  -400.012158
3
Step 433, Time 0.217 ps, Energy -119.889 kcal/mol
O    -42.726238 -1090819.381655    37.885155
H  3466694.393610 8656782.984562  -200.375976
H  -3466016.241750 8656729.384960  -400.938112
3
Step 434, Time 0.217 ps, Energy -119.889 kcal/mol
O    -42.824913 -1093338.595010    37.972650
H  3474700.614468 8676775.553627  -200.838738
H  -3474020.896437 8676721.830238  -401.864066
3
Step 435, Time 0.218 ps, Energy -119.889 kcal/mol
O    -42.923587 -1095857.808364    38.060145
H  3482706.835325 8696768.122692  -201.301500
H  -3482025.551123 8696714.275516  -402.790020
3
Step 436, Time 0.218 ps, Energy -119.889 kcal/mol
O    -43.022262 -1098377.021719    38.147639
H  3490713.056182 8716760.691757  -201.764262
H  -3490030.205810 8716706.720794  -403.715974
3
Step 437, Time 0.219 ps, Energy -119.889 kcal/mol
O    -43.120937 -1100896.235073    38.235134
H  3498719.277040 8736753.260822  -202.227024
H  -3498034.860497 8736699.166072  -404.641928
3
Step 438, Time 0.220 ps, Energy -119.889 kcal/mol
O    -43.219612 -1103415.448427    38.322628
H  3506725.497897 8756745.829886  -202.689786
H  -3506039.515184 8756691.611350  -405.567883
3
Step 439, Time 0.220 ps, Energy -119.889 kcal/mol
O    -43.318287 -1105934.661782    38.410123
H  3514731.718754 8776738.398951  -203.152548
H  -3514044.169871 8776684.056629  -406.493837
3
Step 440, Time 0.221 ps, Energy -119.889 kcal/mol
O    -43.416962 -1108453.875136    38.497617
H  3522737.939612 8796730.968016  -203.615310
H  -3522048.824557 8796676.501907  -407.419791
3
Step 441, Time 0.221 ps, Energy -119.889 kcal/mol
O    -43.515637 -1110973.088491    38.585112
H  3530744.160469 8816723.537081  -204.078072
H  -3530053.479244 8816668.947185  -408.345745
3
Step 442, Time 0.222 ps, Energy -119.889 kcal/mol
O    -43.614312 -1113492.301845    38.672607
H  3538750.381327 8836716.106146  -204.540834
H  -3538058.133931 8836661.392463  -409.271699
3
Step 443, Time 0.222 ps, Energy -119.889 kcal/mol
O    -43.712987 -1116011.515200    38.760101
H  3546756.602184 8856708.675211  -205.003596
H  -3546062.788618 8856653.837742  -410.197653
3
Step 444, Time 0.223 ps, Energy -119.889 kcal/mol
O    -43.811662 -1118530.728554    38.847596
H  3554762.823041 8876701.244275  -205.466358
H  -3554067.443304 8876646.283020  -411.123607
3
Step 445, Time 0.223 ps, Energy -119.889 kcal/mol
O    -43.910337 -1121049.941909    38.935090
H  3562769.043899 8896693.813340  -205.929120
H  -3562072.097991 8896638.728298  -412.049561
3
Step 446, Time 0.224 ps, Energy -119.889 kcal/mol
O    -44.009011 -1123569.155263    39.022585
H  3570775.264756 8916686.382405  -206.391882
H  -3570076.752678 8916631.173576  -412.975515
3
Step 447, Time 0.224 ps, Energy -119.889 kcal/mol
O    -44.107686 -1126088.368617    39.110080
H  3578781.485613 8936678.951470  -206.854645
H  -3578081.407365 8936623.618855  -413.901469
3
Step 448, Time 0.225 ps, Energy -119.889 kcal/mol
O    -44.206361 -1128607.581972    39.197574
H  3586787.706471 8956671.520535  -207.317407
H  -3586086.062051 8956616.064133  -414.827423
3
Step 449, Time 0.225 ps, Energy -119.889 kcal/mol
O    -44.305036 -1131126.795326    39.285069
H  3594793.927328 8976664.089600  -207.780169
H  -3594090.716738 8976608.509411  -415.753377
3
Step 450, Time 0.226 ps, Energy -119.889 kcal/mol
O    -44.403711 -1133646.008681    39.372563
H  3602800.148185 8996656.658665  -208.242931
H  -3602095.371425 8996600.954689  -416.679331
3
Step 451, Time 0.226 ps, Energy -119.889 kcal/mol
O    -44.502386 -1136165.222035    39.460058
H  3610806.369042 9016649.227729  -208.705693
H  -3610100.026112 9016593.399968  -417.605285
3
Step 452, Time 0.227 ps, Energy -119.889 kcal/mol
O    -44.601061 -1138684.435390    39.547552
H  3618812.589900 9036641.796794  -209.168455
H  -3618104.680798 9036585.845246  -418.531240
3
Step 453, Time 0.227 ps, Energy -119.889 kcal/mol
O    -44.699736 -1141203.648744    39.635047
H  3626818.810757 9056634.365859  -209.631217
H  -3626109.335485 9056578.290524  -419.457194
3
Step 454, Time 0.228 ps, Energy -119.889 kcal/mol
O    -44.798411 -1143722.862099    39.722542
H  3634825.031614 9076626.934924  -210.093979
H  -3634113.990172 9076570.735802  -420.383148
3
Step 455, Time 0.228 ps, Energy -119.889 kcal/mol
O    -44.897086 -1146242.075453    39.810036
H  3642831.252472 9096619.503989  -210.556741
H  -3642118.644858 9096563.181081  -421.309102
3
Step 456, Time 0.229 ps, Energy -119.889 kcal/mol
O    -44.995761 -1148761.288808    39.897531
H  3650837.473329 9116612.073054  -211.019503
H  -3650123.299545 9116555.626359  -422.235056
3
Step 457, Time 0.229 ps, Energy -119.889 kcal/mol
O    -45.094436 -1151280.502162    39.985025
H  3658843.694186 9136604.642119  -211.482265
H  -3658127.954232 9136548.071637  -423.161010
3
Step 458, Time 0.230 ps, Energy -119.889 kcal/mol
O    -45.193110 -1153799.715516    40.072520
H  3666849.915044 9156597.211184  -211.945027
H  -3666132.608919 9156540.516916  -424.086964
3
Step 459, Time 0.230 ps, Energy -119.889 kcal/mol
O    -45.291785 -1156318.928871    40.160015
H  3674856.135901 9176589.780249  -212.407789
H  -3674137.263605 9176532.962194  -425.012918
3
Step 460, Time 0.231 ps, Energy -119.889 kcal/mol
O    -45.390460 -1158838.142225    40.247509
H  3682862.356758 9196582.349314  -212.870551
H  -3682141.918292 9196525.407472  -425.938872
3
Step 461, Time 0.231 ps, Energy -119.889 kcal/mol
O    -45.489135 -1161357.355580    40.335004
H  3690868.577615 9216574.918379  -213.333314
H  -3690146.572979 9216517.852751  -426.864826
3
Step 462, Time 0.232 ps, Energy -119.889 kcal/mol
O    -45.587810 -1163876.568934    40.422498
H  3698874.798473 9236567.487443  -213.796076
H  -3698151.227665 9236510.298029  -427.790780
3
Step 463, Time 0.232 ps, Energy -119.889 kcal/mol
O    -45.686485 -1166395.782289    40.509993
H  3706881.019330 9256560.056508  -214.258838
H  -3706155.882352 9256502.743307  -428.716734
3
Step 464, Time 0.233 ps, Energy -119.889 kcal/mol
O    -45.785160 -1168914.995643    40.597487
H  3714887.240187 9276552.625573  -214.721600
H  -3714160.537039 9276495.188586  -429.642688
3
Step 465, Time 0.233 ps, Energy -119.889 kcal/mol
O    -45.883835 -1171434.208998    40.684982
H  3722893.461044 9296545.194638  -215.184362
H  -3722165.191725 9296487.633864  -430.568642
3
Step 466, Time 0.234 ps, Energy -119.889 kcal/mol
O    -45.982510 -1173953.422352    40.772477
H  3730899.681902 9316537.763703  -215.647124
H  -3730169.846412 9316480.079142  -431.494596
3
Step 467, Time 0.234 ps, Energy -119.889 kcal/mol
O    -46.081185 -1176472.635707    40.859971
H  3738905.902759 9336530.332768  -216.109886
H  -3738174.501099 9336472.524421  -432.420551
3
Step 468, Time 0.234 ps, Energy -119.889 kcal/mol
O    -46.179860 -1178991.849061    40.947466
H  3746912.123616 9356522.901833  -216.572648
H  -3746179.155785 9356464.969699  -433.346505
3
Step 469, Time 0.235 ps, Energy -119.889 kcal/mol
O    -46.278534 -1181511.062416    41.034960
H  3754918.344473 9376515.470898  -217.035410
H  -3754183.810472 9376457.414977  -434.272459
3
Step 470, Time 0.235 ps, Energy -119.889 kcal/mol
O    -46.377209 -1184030.275770    41.122455
H  3762924.565331 9396508.039963  -217.498172
H  -3762188.465159 9396449.860256  -435.198413
3
Step 471, Time 0.236 ps, Energy -119.889 kcal/mol
O    -46.475884 -1186549.489124    41.209950
H  3770930.786188 9416500.609028  -217.960934
H  -3770193.119845 9416442.305534  -436.124367
3
Step 472, Time 0.236 ps, Energy -119.889 kcal/mol
O    -46.574559 -1189068.702479    41.297444
H  3778937.007045 9436493.178093  -218.423696
H  -3778197.774532 9436434.750812  -437.050321
3
Step 473, Time 0.237 ps, Energy -119.889 kcal/mol
O    -46.673234 -1191587.915833    41.384939
H  3786943.227902 9456485.747158  -218.886458
H  -3786202.429219 9456427.196091  -437.976275
3
Step 474, Time 0.237 ps, Energy -119.889 kcal/mol
O    -46.771909 -1194107.129188    41.472433
H  3794949.448760 9476478.316223  -219.349220
H  -3794207.083905 9476419.641369  -438.902229
3
Step 475, Time 0.238 ps, Energy -119.889 kcal/mol
O    -46.870584 -1196626.342542    41.559928
H  3802955.669617 9496470.885288  -219.811982
H  -3802211.738592 9496412.086647  -439.828183
3
Step 476, Time 0.238 ps, Energy -119.889 kcal/mol
O    -46.969259 -1199145.555897    41.647423
H  3810961.890474 9516463.454353  -220.274745
H  -3810216.393279 9516404.531926  -440.754137
3
Step 477, Time 0.239 ps, Energy -119.889 kcal/mol
O    -47.067934 -1201664.769251    41.734917
H  3818968.111331 9536456.023418  -220.737507
H  -3818221.047965 9536396.977204  -441.680091
3
Step 478, Time 0.239 ps, Energy -119.889 kcal/mol
O    -47.166609 -1204183.982606    41.822412
H  3826974.332188 9556448.592483  -221.200269
H  -3826225.702652 9556389.422483  -442.606045
3
Step 479, Time 0.240 ps, Energy -119.889 kcal/mol
O    -47.265284 -1206703.195960    41.909906
H  3834980.553046 9576441.161548  -221.663031
H  -3834230.357339 9576381.867761  -443.531999
3
Step 480, Time 0.240 ps, Energy -119.889 kcal/mol
O    -47.363959 -1209222.409315    41.997401
H  3842986.773903 9596433.730613  -222.125793
H  -3842235.012025 9596374.313039  -444.457953
3
Step 481, Time 0.241 ps, Energy -119.889 kcal/mol
O    -47.462633 -1211741.622669    42.084895
H  3850992.994760 9616426.299678  -222.588555
H  -3850239.666712 9616366.758318  -445.383908
3
Step 482, Time 0.241 ps, Energy -119.889 kcal/mol
O    -47.561308 -1214260.836024    42.172390
H  3858999.215617 9636418.868743  -223.051317
H  -3858244.321398 9636359.203596  -446.309862
3
Step 483, Time 0.242 ps, Energy -119.889 kcal/mol
O    -47.659983 -1216780.049378    42.259885
H  3867005.436474 9656411.437808  -223.514079
H  -3866248.976085 9656351.648875  -447.235816
3
Step 484, Time 0.242 ps, Energy -119.889 kcal/mol
O    -47.758658 -1219299.262733    42.347379
H  3875011.657332 9676404.006873  -223.976841
H  -3874253.630772 9676344.094153  -448.161770
3
Step 485, Time 0.243 ps, Energy -119.889 kcal/mol
O    -47.857333 -1221818.476087    42.434874
H  3883017.878189 9696396.575938  -224.439603
H  -3882258.285458 9696336.539431  -449.087724
3
Step 486, Time 0.243 ps, Energy -119.889 kcal/mol
O    -47.956008 -1224337.689442    42.522368
H  3891024.099046 9716389.145003  -224.902365
H  -3890262.940145 9716328.984710  -450.013678
3
Step 487, Time 0.244 ps, Energy -119.889 kcal/mol
O    -48.054683 -1226856.902796    42.609863
H  3899030.319903 9736381.714068  -225.365127
H  -3898267.594831 9736321.429988  -450.939632
3
Step 488, Time 0.244 ps, Energy -119.889 kcal/mol
O    -48.153358 -1229376.116150    42.697358
H  3907036.540760 9756374.283133  -225.827889
H  -3906272.249518 9756313.875267  -451.865586
3
Step 489, Time 0.245 ps, Energy -119.889 kcal/mol
O    -48.252033 -1231895.329505    42.784852
H  3915042.761618 9776366.852198  -226.290651
H  -3914276.904205 9776306.320545  -452.791540
3
Step 490, Time 0.245 ps, Energy -119.889 kcal/mol
O    -48.350708 -1234414.542859    42.872347
H  3923048.982475 9796359.421263  -226.753414
H  -3922281.558891 9796298.765824  -453.717494
3
Step 491, Time 0.246 ps, Energy -119.889 kcal/mol
O    -48.449383 -1236933.756214    42.959841
H  3931055.203332 9816351.990328  -227.216176
H  -3930286.213578 9816291.211102  -454.643448
3
Step 492, Time 0.246 ps, Energy -119.889 kcal/mol
O    -48.548058 -1239452.969568    43.047336
H  3939061.424189 9836344.559393  -227.678938
H  -3938290.868264 9836283.656380  -455.569402
3
Step 493, Time 0.247 ps, Energy -119.889 kcal/mol
O    -48.646732 -1241972.182923    43.134830
H  3947067.645046 9856337.128458  -228.141700
H  -3946295.522951 9856276.101659  -456.495356
3
Step 494, Time 0.247 ps, Energy -119.889 kcal/mol
O    -48.745407 -1244491.396277    43.222325
H  3955073.865903 9876329.697524  -228.604462
H  -3954300.177638 9876268.546937  -457.421310
3
Step 495, Time 0.248 ps, Energy -119.889 kcal/mol
O    -48.844082 -1247010.609632    43.309820
H  3963080.086761 9896322.266589  -229.067224
H  -3962304.832324 9896260.992216  -458.347265
3
Step 496, Time 0.248 ps, Energy -119.889 kcal/mol
O    -48.942757 -1249529.822986    43.397314
H  3971086.307618 9916314.835654  -229.529986
H  -3970309.487011 9916253.437494  -459.273219
3
Step 497, Time 0.249 ps, Energy -119.889 kcal/mol
O    -49.041432 -1252049.036341    43.484809
H  3979092.528475 9936307.404719  -229.992748
H  -3978314.141697 9936245.882773  -460.199173
3
Step 498, Time 0.249 ps, Energy -119.889 kcal/mol
O    -49.140107 -1254568.249695    43.572303
H  3987098.749332 9956299.973784  -230.455510
H  -3986318.796384 9956238.328051  -461.125127
3
Step 499, Time 0.250 ps, Energy -119.889 kcal/mol
O    -49.238782 -1257087.463050    43.659798
H  3995104.970189 9976292.542849  -230.918272
H  -3994323.451070 9976230.773330  -462.051081
3
Step 500, Time 0.251 ps, Energy -119.889 kcal/mol
O    -49.337457 -1259606.676404    43.747293
H  4003111.191046 9996285.111914  -231.381034
H  -4002328.105757 9996223.218608  -462.977035
3
Step 501, Time 0.251 ps, Energy -119.889 kcal/mol
O    -49.436132 -1262125.889759    43.834787
H  4011117.411903 10016277.680979  -231.843796
H  -4010332.760443 10016215.663887  -463.902989
3
Step 502, Time 0.252 ps, Energy -119.889 kcal/mol
O    -49.534807 -1264645.103113    43.922282
H  4019123.632760 10036270.250044  -232.306558
H  -4018337.415130 10036208.109165  -464.828943
3
Step 503, Time 0.252 ps, Energy -119.889 kcal/mol
O    -49.633482 -1267164.316468    44.009776
H  4027129.853618 10056262.819109  -232.769320
H  -4026342.069817 10056200.554444  -465.754897
3
Step 504, Time 0.253 ps, Energy -119.889 kcal/mol
O    -49.732156 -1269683.529822    44.097271
H  4035136.074475 10076255.388174  -233.232082
H  -4034346.724503 10076192.999722  -466.680851
3
Step 505, Time 0.253 ps, Energy -119.889 kcal/mol
O    -49.830831 -1272202.743177    44.184765
H  4043142.295332 10096247.957240  -233.694845
H  -4042351.379190 10096185.445001  -467.606805
3
Step 506, Time 0.254 ps, Energy -119.889 kcal/mol
O    -49.929506 -1274721.956531    44.272260
H  4051148.516189 10116240.526305  -234.157607
H  -4050356.033876 10116177.890279  -468.532759
3
Step 507, Time 0.254 ps, Energy -119.889 kcal/mol
O    -50.028181 -1277241.169886    44.359755
H  4059154.737046 10136233.095370  -234.620369
H  -4058360.688563 10136170.335558  -469.458713
3
Step 508, Time 0.255 ps, Energy -119.889 kcal/mol
O    -50.126856 -1279760.383240    44.447249
H  4067160.957903 10156225.664435  -235.083131
H  -4066365.343249 10156162.780836  -470.384667
3
Step 509, Time 0.255 ps, Energy -119.889 kcal/mol
O    -50.225531 -1282279.596595    44.534744
H  4075167.178760 10176218.233500  -235.545893
H  -4074369.997936 10176155.226115  -471.310621
3
Step 510, Time 0.256 ps, Energy -119.889 kcal/mol
O    -50.324206 -1284798.809949    44.622238
H  4083173.399617 10196210.802565  -236.008655
H  -4082374.652622 10196147.671393  -472.236576
3
Step 511, Time 0.256 ps, Energy -119.889 kcal/mol
O    -50.422881 -1287318.023303    44.709733
H  4091179.620474 10216203.371630  -236.471417
H  -4090379.307309 10216140.116672  -473.162530
3
Step 512, Time 0.257 ps, Energy -119.889 kcal/mol
O    -50.521556 -1289837.236658    44.797228
H  4099185.841332 10236195.940695  -236.934179
H  -4098383.961995 10236132.561950  -474.088484
3
Step 513, Time 0.257 ps, Energy -119.889 kcal/mol
O    -50.620231 -1292356.450012    44.884722
H  4107192.062189 10256188.509761  -237.396941
H  -4106388.616682 10256125.007229  -475.014438
3
Step 514, Time 0.258 ps, Energy -119.889 kcal/mol
O    -50.718906 -1294875.663367    44.972217
H  4115198.283046 10276181.078826  -237.859703
H  -4114393.271368 10276117.452507  -475.940392
3
Step 515, Time 0.258 ps, Energy -119.889 kcal/mol
O    -50.817581 -1297394.876721    45.059711
H  4123204.503903 10296173.647891  -238.322465
H  -4122397.926055 10296109.897786  -476.866346
3
Step 516, Time 0.259 ps, Energy -119.889 kcal/mol
O    -50.916255 -1299914.090076    45.147206
H  4131210.724760 10316166.216956  -238.785227
H  -4130402.580741 10316102.343064  -477.792300
3
Step 517, Time 0.259 ps, Energy -119.889 kcal/mol
O    -51.014930 -1302433.303430    45.234701
H  4139216.945617 10336158.786021  -239.247989
H  -4138407.235428 10336094.788343  -478.718254
3
Step 518, Time 0.260 ps, Energy -119.889 kcal/mol
O    -51.113605 -1304952.516785    45.322195
H  4147223.166474 10356151.355086  -239.710751
H  -4146411.890114 10356087.233622  -479.644208
3
Step 519, Time 0.260 ps, Energy -119.889 kcal/mol
O    -51.212280 -1307471.730139    45.409690
H  4155229.387331 10376143.924151  -240.173514
H  -4154416.544801 10376079.678900  -480.570162
3
Step 520, Time 0.261 ps, Energy -119.889 kcal/mol
O    -51.310955 -1309990.943494    45.497184
H  4163235.608188 10396136.493217  -240.636276
H  -4162421.199487 10396072.124179  -481.496116
3
Step 521, Time 0.261 ps, Energy -119.889 kcal/mol
O    -51.409630 -1312510.156848    45.584679
H  4171241.829045 10416129.062282  -241.099038
H  -4170425.854174 10416064.569457  -482.422070
3
Step 522, Time 0.262 ps, Energy -119.889 kcal/mol
O    -51.508305 -1315029.370203    45.672173
H  4179248.049902 10436121.631347  -241.561800
H  -4178430.508860 10436057.014736  -483.348024
3
Step 523, Time 0.262 ps, Energy -119.889 kcal/mol
O    -51.606980 -1317548.583557    45.759668
H  4187254.270759 10456114.200412  -242.024562
H  -4186435.163547 10456049.460014  -484.273978
3
Step 524, Time 0.263 ps, Energy -119.889 kcal/mol
O    -51.705655 -1320067.796912    45.847163
H  4195260.491617 10476106.769477  -242.487324
H  -4194439.818233 10476041.905293  -485.199933
3
Step 525, Time 0.263 ps, Energy -119.889 kcal/mol
O    -51.804330 -1322587.010266    45.934657
H  4203266.712474 10496099.338542  -242.950086
H  -4202444.472920 10496034.350571  -486.125887
3
Step 526, Time 0.264 ps, Energy -119.889 kcal/mol
O    -51.903005 -1325106.223621    46.022152
H  4211272.933331 10516091.907608  -243.412848
H  -4210449.127606 10516026.795850  -487.051841
3
Step 527, Time 0.264 ps, Energy -119.889 kcal/mol
O    -52.001679 -1327625.436975    46.109646
H  4219279.154188 10536084.476673  -243.875610
H  -4218453.782293 10536019.241129  -487.977795
3
Step 528, Time 0.265 ps, Energy -119.889 kcal/mol
O    -52.100354 -1330144.650330    46.197141
H  4227285.375045 10556077.045738  -244.338372
H  -4226458.436979 10556011.686407  -488.903749
3
Step 529, Time 0.265 ps, Energy -119.889 kcal/mol
O    -52.199029 -1332663.863684    46.284636
H  4235291.595902 10576069.614803  -244.801134
H  -4234463.091666 10576004.131686  -489.829703
3
Step 530, Time 0.266 ps, Energy -119.889 kcal/mol
O    -52.297704 -1335183.077039    46.372130
H  4243297.816759 10596062.183868  -245.263896
H  -4242467.746352 10595996.576964  -490.755657
3
Step 531, Time 0.266 ps, Energy -119.889 kcal/mol
O    -52.396379 -1337702.290393    46.459625
H  4251304.037616 10616054.752934  -245.726658
H  -4250472.401039 10615989.022243  -491.681611
3
Step 532, Time 0.267 ps, Energy -119.889 kcal/mol
O    -52.495054 -1340221.503748    46.547119
H  4259310.258473 10636047.321999  -246.189420
H  -4258477.055725 10635981.467522  -492.607565
3
Step 533, Time 0.267 ps, Energy -119.889 kcal/mol
O    -52.593729 -1342740.717102    46.634614
H  4267316.479330 10656039.891064  -246.652183
H  -4266481.710412 10655973.912800  -493.533519
3
Step 534, Time 0.268 ps, Energy -119.889 kcal/mol
O    -52.692404 -1345259.930457    46.722108
H  4275322.700187 10676032.460129  -247.114945
H  -4274486.365098 10675966.358079  -494.459473
3
Step 535, Time 0.268 ps, Energy -119.889 kcal/mol
O    -52.791079 -1347779.143811    46.809603
H  4283328.921044 10696025.029195  -247.577707
H  -4282491.019784 10695958.803357  -495.385427
3
Step 536, Time 0.269 ps, Energy -119.889 kcal/mol
O    -52.889754 -1350298.357166    46.897098
H  4291335.141901 10716017.598260  -248.040469
H  -4290495.674471 10715951.248636  -496.311381
3
Step 537, Time 0.269 ps, Energy -119.889 kcal/mol
O    -52.988429 -1352817.570520    46.984592
H  4299341.362758 10736010.167325  -248.503231
H  -4298500.329157 10735943.693915  -497.237335
3
Step 538, Time 0.270 ps, Energy -119.889 kcal/mol
O    -53.087104 -1355336.783875    47.072087
H  4307347.583615 10756002.736390  -248.965993
H  -4306504.983844 10755936.139193  -498.163290
3
Step 539, Time 0.270 ps, Energy -119.889 kcal/mol
O    -53.185778 -1357855.997229    47.159581
H  4315353.804472 10775995.305455  -249.428755
H  -4314509.638530 10775928.584472  -499.089244
3
Step 540, Time 0.271 ps, Energy -119.889 kcal/mol
O    -53.284453 -1360375.210584    47.247076
H  4323360.025329 10795987.874521  -249.891517
H  -4322514.293217 10795921.029750  -500.015198
3
Step 541, Time 0.271 ps, Energy -119.889 kcal/mol
O    -53.383128 -1362894.423938    47.334571
H  4331366.246186 10815980.443586  -250.354279
H  -4330518.947903 10815913.475029  -500.941152
3
Step 542, Time 0.272 ps, Energy -119.889 kcal/mol
O    -53.481803 -1365413.637293    47.422065
H  4339372.467043 10835973.012651  -250.817041
H  -4338523.602589 10835905.920308  -501.867106
3
Step 543, Time 0.272 ps, Energy -119.889 kcal/mol
O    -53.580478 -1367932.850647    47.509560
H  4347378.687900 10855965.581716  -251.279803
H  -4346528.257276 10855898.365586  -502.793060
3
Step 544, Time 0.273 ps, Energy -119.889 kcal/mol
O    -53.679153 -1370452.064002    47.597054
H  4355384.908757 10875958.150782  -251.742565
H  -4354532.911962 10875890.810865  -503.719014
3
Step 545, Time 0.273 ps, Energy -119.889 kcal/mol
O    -53.777828 -1372971.277356    47.684549
H  4363391.129614 10895950.719847  -252.205327
H  -4362537.566649 10895883.256144  -504.644968
3
Step 546, Time 0.274 ps, Energy -119.889 kcal/mol
O    -53.876503 -1375490.490711    47.772043
H  4371397.350471 10915943.288912  -252.668089
H  -4370542.221335 10915875.701422  -505.570922
3
Step 547, Time 0.274 ps, Energy -119.889 kcal/mol
O    -53.975178 -1378009.704065    47.859538
H  4379403.571328 10935935.857977  -253.130851
H  -4378546.876022 10935868.146701  -506.496876
3
Step 548, Time 0.275 ps, Energy -119.889 kcal/mol
O    -54.073853 -1380528.917420    47.947033
H  4387409.792185 10955928.427043  -253.593614
H  -4386551.530708 10955860.591980  -507.422830
3
Step 549, Time 0.275 ps, Energy -119.889 kcal/mol
O    -54.172528 -1383048.130774    48.034527
H  4395416.013042 10975920.996108  -254.056376
H  -4394556.185394 10975853.037258  -508.348784
3
Step 550, Time 0.276 ps, Energy -119.889 kcal/mol
O    -54.271203 -1385567.344129    48.122022
H  4403422.233899 10995913.565173  -254.519138
H  -4402560.840081 10995845.482537  -509.274738
3
Step 551, Time 0.276 ps, Energy -119.889 kcal/mol
O    -54.369877 -1388086.557483    48.209516
H  4411428.454756 11015906.134238  -254.981900
H  -4410565.494767 11015837.927816  -510.200692
3
Step 552, Time 0.277 ps, Energy -119.889 kcal/mol
O    -54.468552 -1390605.770838    48.297011
H  4419434.675613 11035898.703304  -255.444662
H  -4418570.149454 11035830.373094  -511.126646
3
Step 553, Time 0.277 ps, Energy -119.889 kcal/mol
O    -54.567227 -1393124.984192    48.384506
H  4427440.896470 11055891.272369  -255.907424
H  -4426574.804140 11055822.818373  -512.052601
3
Step 554, Time 0.278 ps, Energy -119.889 kcal/mol
O    -54.665902 -1395644.197547    48.472000
H  4435447.117327 11075883.841434  -256.370186
H  -4434579.458826 11075815.263652  -512.978555
3
Step 555, Time 0.278 ps, Energy -119.889 kcal/mol
O    -54.764577 -1398163.410901    48.559495
H  4443453.338184 11095876.410500  -256.832948
H  -4442584.113513 11095807.708930  -513.904509
3
Step 556, Time 0.279 ps, Energy -119.889 kcal/mol
O    -54.863252 -1400682.624256    48.646989
H  4451459.559041 11115868.979565  -257.295710
H  -4450588.768199 11115800.154209  -514.830463
3
Step 557, Time 0.279 ps, Energy -119.889 kcal/mol
O    -54.961927 -1403201.837610    48.734484
H  4459465.779898 11135861.548630  -257.758472
H  -4458593.422886 11135792.599488  -515.756417
3
Step 558, Time 0.280 ps, Energy -119.889 kcal/mol
O    -55.060602 -1405721.050965    48.821978
H  4467472.000755 11155854.117695  -258.221234
H  -4466598.077572 11155785.044766  -516.682371
3
Step 559, Time 0.280 ps, Energy -119.889 kcal/mol
O    -55.159277 -1408240.264319    48.909473
H  4475478.221612 11175846.686761  -258.683996
H  -4474602.732258 11175777.490045  -517.608325
3
Step 560, Time 0.281 ps, Energy -119.889 kcal/mol
O    -55.257952 -1410759.477674    48.996968
H  4483484.442469 11195839.255826  -259.146758
H  -4482607.386945 11195769.935324  -518.534279
3
Step 561, Time 0.281 ps, Energy -119.889 kcal/mol
O    -55.356627 -1413278.691028    49.084462
H  4491490.663326 11215831.824891  -259.609520
H  -4490612.041631 11215762.380602  -519.460233
3
Step 562, Time 0.281 ps, Energy -119.889 kcal/mol
O    -55.455301 -1415797.904383    49.171957
H  4499496.884183 11235824.393957  -260.072283
H  -4498616.696318 11235754.825881  -520.386187
3
Step 563, Time 0.282 ps, Energy -119.889 kcal/mol
O    -55.553976 -1418317.117737    49.259451
H  4507503.105040 11255816.963022  -260.535045
H  -4506621.351004 11255747.271160  -521.312141
3
Step 564, Time 0.282 ps, Energy -119.889 kcal/mol
O    -55.652651 -1420836.331092    49.346946
H  4515509.325897 11275809.532087  -260.997807
H  -4514626.005690 11275739.716438  -522.238095
3
Step 565, Time 0.283 ps, Energy -119.889 kcal/mol
O    -55.751326 -1423355.544446    49.434441
H  4523515.546754 11295802.101153  -261.460569
H  -4522630.660377 11295732.161717  -523.164049
3
Step 566, Time 0.283 ps, Energy -119.889 kcal/mol
O    -55.850001 -1425874.757801    49.521935
H  4531521.767611 11315794.670218  -261.923331
H  -4530635.315063 11315724.606996  -524.090003
3
Step 567, Time 0.284 ps, Energy -119.889 kcal/mol
O    -55.948676 -1428393.971155    49.609430
H  4539527.988468 11335787.239283  -262.386093
H  -4538639.969749 11335717.052275  -525.015958
3
Step 568, Time 0.284 ps, Energy -119.889 kcal/mol
O    -56.047351 -1430913.184510    49.696924
H  4547534.209324 11355779.808349  -262.848855
H  -4546644.624436 11355709.497553  -525.941912
3
Step 569, Time 0.285 ps, Energy -119.889 kcal/mol
O    -56.146026 -1433432.397864    49.784419
H  4555540.430181 11375772.377414  -263.311617
H  -4554649.279122 11375701.942832  -526.867866
3
Step 570, Time 0.285 ps, Energy -119.889 kcal/mol
O    -56.244701 -1435951.611219    49.871914
H  4563546.651038 11395764.946479  -263.774379
H  -4562653.933808 11395694.388111  -527.793820
3
Step 571, Time 0.286 ps, Energy -119.889 kcal/mol
O    -56.343376 -1438470.824573    49.959408
H  4571552.871895 11415757.515545  -264.237141
H  -4570658.588495 11415686.833389  -528.719774
3
Step 572, Time 0.286 ps, Energy -119.889 kcal/mol
O    -56.442051 -1440990.037928    50.046903
H  4579559.092752 11435750.084610  -264.699903
H  -4578663.243181 11435679.278668  -529.645728
3
Step 573, Time 0.287 ps, Energy -119.889 kcal/mol
O    -56.540726 -1443509.251282    50.134397
H  4587565.313609 11455742.653675  -265.162665
H  -4586667.897868 11455671.723947  -530.571682
3
Step 574, Time 0.287 ps, Energy -119.889 kcal/mol
O    -56.639400 -1446028.464637    50.221892
H  4595571.534466 11475735.222741  -265.625427
H  -4594672.552554 11475664.169226  -531.497636
3
Step 575, Time 0.288 ps, Energy -119.889 kcal/mol
O    -56.738075 -1448547.677991    50.309386
H  4603577.755323 11495727.791806  -266.088189
H  -4602677.207240 11495656.614504  -532.423590
3
Step 576, Time 0.288 ps, Energy -119.889 kcal/mol
O    -56.836750 -1451066.891346    50.396881
H  4611583.976180 11515720.360871  -266.550951
H  -4610681.861927 11515649.059783  -533.349544
3
Step 577, Time 0.289 ps, Energy -119.889 kcal/mol
O    -56.935425 -1453586.104700    50.484376
H  4619590.197037 11535712.929937  -267.013714
H  -4618686.516613 11535641.505062  -534.275498
3
Step 578, Time 0.289 ps, Energy -119.889 kcal/mol
O    -57.034100 -1456105.318055    50.571870
H  4627596.417894 11555705.499002  -267.476476
H  -4626691.171299 11555633.950341  -535.201452
3
Step 579, Time 0.290 ps, Energy -119.889 kcal/mol
O    -57.132775 -1458624.531409    50.659365
H  4635602.638751 11575698.068067  -267.939238
H  -4634695.825986 11575626.395619  -536.127406
3
Step 580, Time 0.290 ps, Energy -119.889 kcal/mol
O    -57.231450 -1461143.744764    50.746859
H  4643608.859608 11595690.637133  -268.402000
H  -4642700.480672 11595618.840898  -537.053360
3
Step 581, Time 0.291 ps, Energy -119.889 kcal/mol
O    -57.330125 -1463662.958119    50.834354
H  4651615.080465 11615683.206198  -268.864762
H  -4650705.135358 11615611.286177  -537.979315
3
Step 582, Time 0.291 ps, Energy -119.889 kcal/mol
O    -57.428800 -1466182.171473    50.921849
H  4659621.301321 11635675.775263  -269.327524
H  -4658709.790045 11635603.731456  -538.905269
3
Step 583, Time 0.292 ps, Energy -119.889 kcal/mol
O    -57.527475 -1468701.384828    51.009343
H  4667627.522178 11655668.344329  -269.790286
H  -4666714.444731 11655596.176734  -539.831223
3
Step 584, Time 0.292 ps, Energy -119.889 kcal/mol
O    -57.626150 -1471220.598182    51.096838
H  4675633.743035 11675660.913394  -270.253048
H  -4674719.099417 11675588.622013  -540.757177
3
Step 585, Time 0.293 ps, Energy -119.889 kcal/mol
O    -57.724824 -1473739.811537    51.184332
H  4683639.963892 11695653.482460  -270.715810
H  -4682723.754104 11695581.067292  -541.683131
3
Step 586, Time 0.293 ps, Energy -119.889 kcal/mol
O    -57.823499 -1476259.024891    51.271827
H  4691646.184749 11715646.051525  -271.178572
H  -4690728.408790 11715573.512571  -542.609085
3
Step 587, Time 0.294 ps, Energy -119.889 kcal/mol
O    -57.922174 -1478778.238246    51.359321
H  4699652.405606 11735638.620590  -271.641334
H  -4698733.063476 11735565.957849  -543.535039
3
Step 588, Time 0.294 ps, Energy -119.889 kcal/mol
O    -58.020849 -1481297.451600    51.446816
H  4707658.626463 11755631.189656  -272.104096
H  -4706737.718163 11755558.403128  -544.460993
3
Step 589, Time 0.295 ps, Energy -119.889 kcal/mol
O    -58.119524 -1483816.664955    51.534311
H  4715664.847320 11775623.758721  -272.566858
H  -4714742.372849 11775550.848407  -545.386947
3
Step 590, Time 0.295 ps, Energy -119.889 kcal/mol
O    -58.218199 -1486335.878309    51.621805
H  4723671.068177 11795616.327786  -273.029620
H  -4722747.027535 11795543.293686  -546.312901
3
Step 591, Time 0.296 ps, Energy -119.889 kcal/mol
O    -58.316874 -1488855.091664    51.709300
H  4731677.289033 11815608.896852  -273.492383
H  -4730751.682221 11815535.738965  -547.238855
3
Step 592, Time 0.296 ps, Energy -119.889 kcal/mol
O    -58.415549 -1491374.305018    51.796794
H  4739683.509890 11835601.465917  -273.955145
H  -4738756.336908 11835528.184243  -548.164809
3
Step 593, Time 0.297 ps, Energy -119.889 kcal/mol
O    -58.514224 -1493893.518373    51.884289
H  4747689.730747 11855594.034983  -274.417907
H  -4746760.991594 11855520.629522  -549.090763
3
Step 594, Time 0.297 ps, Energy -119.889 kcal/mol
O    -58.612899 -1496412.731727    51.971784
H  4755695.951604 11875586.604048  -274.880669
H  -4754765.646280 11875513.074801  -550.016717
3
Step 595, Time 0.298 ps, Energy -119.889 kcal/mol
O    -58.711574 -1498931.945082    52.059278
H  4763702.172461 11895579.173113  -275.343431
H  -4762770.300967 11895505.520080  -550.942672
3
Step 596, Time 0.298 ps, Energy -119.889 kcal/mol
O    -58.810249 -1501451.158436    52.146773
H  4771708.393318 11915571.742179  -275.806193
H  -4770774.955653 11915497.965359  -551.868626
3
Step 597, Time 0.299 ps, Energy -119.889 kcal/mol
O    -58.908923 -1503970.371791    52.234267
H  4779714.614175 11935564.311244  -276.268955
H  -4778779.610339 11935490.410637  -552.794580
3
Step 598, Time 0.299 ps, Energy -119.889 kcal/mol
O    -59.007598 -1506489.585145    52.321762
H  4787720.835032 11955556.880310  -276.731717
H  -4786784.265026 11955482.855916  -553.720534
3
Step 599, Time 0.300 ps, Energy -119.889 kcal/mol
O    -59.106273 -1509008.798500    52.409256
H  4795727.055888 11975549.449375  -277.194479
H  -4794788.919712 11975475.301195  -554.646488
3
Step 600, Time 0.300 ps, Energy -119.889 kcal/mol
O    -59.204948 -1511528.011854    52.496751
H  4803733.276745 11995542.018441  -277.657241
H  -4802793.574398 11995467.746474  -555.572442
3
Step 601, Time 0.301 ps, Energy -119.889 kcal/mol
O    -59.303623 -1514047.225209    52.584246
H  4811739.497602 12015534.587506  -278.120003
H  -4810798.229084 12015460.191753  -556.498396
3
Step 602, Time 0.301 ps, Energy -119.889 kcal/mol
O    -59.402298 -1516566.438563    52.671740
H  4819745.718459 12035527.156571  -278.582765
H  -4818802.883771 12035452.637031  -557.424350
3
Step 603, Time 0.302 ps, Energy -119.889 kcal/mol
O    -59.500973 -1519085.651918    52.759235
H  4827751.939316 12055519.725637  -279.045527
H  -4826807.538457 12055445.082310  -558.350304
3
Step 604, Time 0.302 ps, Energy -119.889 kcal/mol
O    -59.599648 -1521604.865272    52.846729
H  4835758.160173 12075512.294702  -279.508289
H  -4834812.193143 12075437.527589  -559.276258
3
Step 605, Time 0.303 ps, Energy -119.889 kcal/mol
O    -59.698323 -1524124.078627    52.934224
H  4843764.381030 12095504.863768  -279.971051
H  -4842816.847830 12095429.972868  -560.202212
3
Step 606, Time 0.303 ps, Energy -119.889 kcal/mol
O    -59.796998 -1526643.291981    53.021719
H  4851770.601887 12115497.432833  -280.433814
H  -4850821.502516 12115422.418147  -561.128166
3
Step 607, Time 0.304 ps, Energy -119.889 kcal/mol
O    -59.895673 -1529162.505336    53.109213
H  4859776.822743 12135490.001899  -280.896576
H  -4858826.157202 12135414.863425  -562.054120
3
Step 608, Time 0.304 ps, Energy -119.889 kcal/mol
O    -59.994347 -1531681.718691    53.196708
H  4867783.043600 12155482.570964  -281.359338
H  -4866830.811888 12155407.308704  -562.980074
3
Step 609, Time 0.305 ps, Energy -119.889 kcal/mol
O    -60.093022 -1534200.932045    53.284202
H  4875789.264457 12175475.140029  -281.822100
H  -4874835.466575 12175399.753983  -563.906028
3
Step 610, Time 0.305 ps, Energy -119.889 kcal/mol
O    -60.191697 -1536720.145400    53.371697
H  4883795.485314 12195467.709095  -282.284862
H  -4882840.121261 12195392.199262  -564.831983
3
Step 611, Time 0.306 ps, Energy -119.889 kcal/mol
O    -60.290372 -1539239.358754    53.459192
H  4891801.706171 12215460.278160  -282.747624
H  -4890844.775947 12215384.644541  -565.757937
3
Step 612, Time 0.306 ps, Energy -119.889 kcal/mol
O    -60.389047 -1541758.572109    53.546686
H  4899807.927028 12235452.847226  -283.210386
H  -4898849.430633 12235377.089820  -566.683891
3
Step 613, Time 0.307 ps, Energy -119.889 kcal/mol
O    -60.487722 -1544277.785463    53.634181
H  4907814.147884 12255445.416291  -283.673148
H  -4906854.085320 12255369.535098  -567.609845
3
Step 614, Time 0.307 ps, Energy -119.889 kcal/mol
O    -60.586397 -1546796.998818    53.721675
H  4915820.368741 12275437.985357  -284.135910
H  -4914858.740006 12275361.980377  -568.535799
3
Step 615, Time 0.308 ps, Energy -119.889 kcal/mol
O    -60.685072 -1549316.212172    53.809170
H  4923826.589598 12295430.554422  -284.598672
H  -4922863.394692 12295354.425656  -569.461753
3
Step 616, Time 0.308 ps, Energy -119.889 kcal/mol
O    -60.783747 -1551835.425527    53.896664
H  4931832.810455 12315423.123488  -285.061434
H  -4930868.049378 12315346.870935  -570.387707
3
Step 617, Time 0.309 ps, Energy -119.889 kcal/mol
O    -60.882422 -1554354.638881    53.984159
H  4939839.031312 12335415.692553  -285.524196
H  -4938872.704065 12335339.316214  -571.313661
3
Step 618, Time 0.309 ps, Energy -119.889 kcal/mol
O    -60.981097 -1556873.852236    54.071654
H  4947845.252169 12355408.261618  -285.986958
H  -4946877.358751 12355331.761493  -572.239615
3
Step 619, Time 0.310 ps, Energy -119.889 kcal/mol
O    -61.079772 -1559393.065590    54.159148
H  4955851.473025 12375400.830684  -286.449720
H  -4954882.013437 12375324.206772  -573.165569
3
Step 620, Time 0.310 ps, Energy -119.889 kcal/mol
O    -61.178446 -1561912.278945    54.246643
H  4963857.693882 12395393.399749  -286.912483
H  -4962886.668123 12395316.652050  -574.091523
3
Step 621, Time 0.311 ps, Energy -119.889 kcal/mol
O    -61.277121 -1564431.492299    54.334137
H  4971863.914739 12415385.968815  -287.375245
H  -4970891.322810 12415309.097329  -575.017477
3
Step 622, Time 0.311 ps, Energy -119.889 kcal/mol
O    -61.375796 -1566950.705654    54.421632
H  4979870.135596 12435378.537880  -287.838007
H  -4978895.977496 12435301.542608  -575.943431
3
Step 623, Time 0.312 ps, Energy -119.889 kcal/mol
O    -61.474471 -1569469.919008    54.509127
H  4987876.356453 12455371.106946  -288.300769
H  -4986900.632182 12455293.987887  -576.869385
3
Step 624, Time 0.312 ps, Energy -119.889 kcal/mol
O    -61.573146 -1571989.132363    54.596621
H  4995882.577309 12475363.676011  -288.763531
H  -4994905.286868 12475286.433166  -577.795340
3
Step 625, Time 0.313 ps, Energy -119.889 kcal/mol
O    -61.671821 -1574508.345717    54.684116
H  5003888.798166 12495356.245077  -289.226293
H  -5002909.941555 12495278.878445  -578.721294
3
Step 626, Time 0.314 ps, Energy -119.889 kcal/mol
O    -61.770496 -1577027.559072    54.771610
H  5011895.019023 12515348.814142  -289.689055
H  -5010914.596241 12515271.323724  -579.647248
3
Step 627, Time 0.314 ps, Energy -119.889 kcal/mol
O    -61.869171 -1579546.772427    54.859105
H  5019901.239880 12535341.383208  -290.151817
H  -5018919.250927 12535263.769003  -580.573202
3
Step 628, Time 0.315 ps, Energy -119.889 kcal/mol
O    -61.967846 -1582065.985781    54.946599
H  5027907.460737 12555333.952273  -290.614579
H  -5026923.905613 12555256.214281  -581.499156
3
Step 629, Time 0.315 ps, Energy -119.889 kcal/mol
O    -62.066521 -1584585.199136    55.034094
H  5035913.681594 12575326.521339  -291.077341
H  -5034928.560299 12575248.659560  -582.425110
3
Step 630, Time 0.316 ps, Energy -119.889 kcal/mol
O    -62.165196 -1587104.412490    55.121589
H  5043919.902450 12595319.090404  -291.540103
H  -5042933.214986 12595241.104839  -583.351064
3
Step 631, Time 0.316 ps, Energy -119.889 kcal/mol
O    -62.263871 -1589623.625845    55.209083
H  5051926.123307 12615311.659470  -292.002865
H  -5050937.869672 12615233.550118  -584.277018
3
Step 632, Time 0.317 ps, Energy -119.889 kcal/mol
O    -62.362545 -1592142.839199    55.296578
H  5059932.344164 12635304.228535  -292.465627
H  -5058942.524358 12635225.995397  -585.202972
3
Step 633, Time 0.317 ps, Energy -119.889 kcal/mol
O    -62.461220 -1594662.052554    55.384072
H  5067938.565021 12655296.797601  -292.928389
H  -5066947.179044 12655218.440676  -586.128926
3
Step 634, Time 0.318 ps, Energy -119.889 kcal/mol
O    -62.559895 -1597181.265908    55.471567
H  5075944.785878 12675289.366666  -293.391151
H  -5074951.833731 12675210.885955  -587.054880
3
Step 635, Time 0.318 ps, Energy -119.889 kcal/mol
O    -62.658570 -1599700.479263    55.559062
H  5083951.006734 12695281.935732  -293.853914
H  -5082956.488417 12695203.331234  -587.980834
3
Step 636, Time 0.319 ps, Energy -119.889 kcal/mol
O    -62.757245 -1602219.692617    55.646556
H  5091957.227591 12715274.504797  -294.316676
H  -5090961.143103 12715195.776513  -588.906788
3
Step 637, Time 0.319 ps, Energy -119.889 kcal/mol
O    -62.855920 -1604738.905972    55.734051
H  5099963.448448 12735267.073863  -294.779438
H  -5098965.797789 12735188.221791  -589.832742
3
Step 638, Time 0.320 ps, Energy -119.889 kcal/mol
O    -62.954595 -1607258.119326    55.821545
H  5107969.669305 12755259.642928  -295.242200
H  -5106970.452475 12755180.667070  -590.758697
3
Step 639, Time 0.320 ps, Energy -119.889 kcal/mol
O    -63.053270 -1609777.332681    55.909040
H  5115975.890161 12775252.211994  -295.704962
H  -5114975.107162 12775173.112349  -591.684651
3
Step 640, Time 0.321 ps, Energy -119.889 kcal/mol
O    -63.151945 -1612296.546035    55.996534
H  5123982.111018 12795244.781059  -296.167724
H  -5122979.761848 12795165.557628  -592.610605
3
Step 641, Time 0.321 ps, Energy -119.889 kcal/mol
O    -63.250620 -1614815.759390    56.084029
H  5131988.331875 12815237.350125  -296.630486
H  -5130984.416534 12815158.002907  -593.536559
3
Step 642, Time 0.322 ps, Energy -119.889 kcal/mol
O    -63.349295 -1617334.972745    56.171524
H  5139994.552732 12835229.919190  -297.093248
H  -5138989.071220 12835150.448186  -594.462513
3
Step 643, Time 0.322 ps, Energy -119.889 kcal/mol
O    -63.447969 -1619854.186099    56.259018
H  5148000.773589 12855222.488256  -297.556010
H  -5146993.725906 12855142.893465  -595.388467
3
Step 644, Time 0.323 ps, Energy -119.889 kcal/mol
O    -63.546644 -1622373.399454    56.346513
H  5156006.994445 12875215.057321  -298.018772
H  -5154998.380593 12875135.338744  -596.314421
3
Step 645, Time 0.323 ps, Energy -119.889 kcal/mol
O    -63.645319 -1624892.612808    56.434007
H  5164013.215302 12895207.626387  -298.481534
H  -5163003.035279 12895127.784023  -597.240375
3
Step 646, Time 0.324 ps, Energy -119.889 kcal/mol
O    -63.743994 -1627411.826163    56.521502
H  5172019.436159 12915200.195452  -298.944296
H  -5171007.689965 12915120.229302  -598.166329
3
Step 647, Time 0.324 ps, Energy -119.889 kcal/mol
O    -63.842669 -1629931.039517    56.608997
H  5180025.657016 12935192.764518  -299.407058
H  -5179012.344651 12935112.674581  -599.092283
3
Step 648, Time 0.325 ps, Energy -119.889 kcal/mol
O    -63.941344 -1632450.252872    56.696491
H  5188031.877872 12955185.333584  -299.869820
H  -5187016.999337 12955105.119859  -600.018237
3
Step 649, Time 0.325 ps, Energy -119.889 kcal/mol
O    -64.040019 -1634969.466226    56.783986
H  5196038.098729 12975177.902649  -300.332583
H  -5195021.654024 12975097.565138  -600.944191
3
Step 650, Time 0.326 ps, Energy -119.889 kcal/mol
O    -64.138694 -1637488.679581    56.871480
H  5204044.319586 12995170.471715  -300.795345
H  -5203026.308710 12995090.010417  -601.870145
3
Step 651, Time 0.326 ps, Energy -119.889 kcal/mol
O    -64.237369 -1640007.892935    56.958975
H  5212050.540443 13015163.040780  -301.258107
H  -5211030.963396 13015082.455696  -602.796099
3
Step 652, Time 0.327 ps, Energy -119.889 kcal/mol
O    -64.336044 -1642527.106290    57.046470
H  5220056.761299 13035155.609846  -301.720869
H  -5219035.618082 13035074.900975  -603.722053
3
Step 653, Time 0.327 ps, Energy -119.889 kcal/mol
O    -64.434719 -1645046.319644    57.133964
H  5228062.982156 13055148.178911  -302.183631
H  -5227040.272768 13055067.346254  -604.648008
3
Step 654, Time 0.328 ps, Energy -119.889 kcal/mol
O    -64.533394 -1647565.532999    57.221459
H  5236069.203013 13075140.747977  -302.646393
H  -5235044.927454 13075059.791533  -605.573962
3
Step 655, Time 0.328 ps, Energy -119.889 kcal/mol
O    -64.632068 -1650084.746353    57.308953
H  5244075.423870 13095133.317042  -303.109155
H  -5243049.582141 13095052.236812  -606.499916
3
Step 656, Time 0.329 ps, Energy -119.889 kcal/mol
O    -64.730743 -1652603.959708    57.396448
H  5252081.644726 13115125.886108  -303.571917
H  -5251054.236827 13115044.682091  -607.425870
3
Step 657, Time 0.329 ps, Energy -119.889 kcal/mol
O    -64.829418 -1655123.173063    57.483942
H  5260087.865583 13135118.455174  -304.034679
H  -5259058.891513 13135037.127370  -608.351824
3
Step 658, Time 0.330 ps, Energy -119.889 kcal/mol
O    -64.928093 -1657642.386417    57.571437
H  5268094.086440 13155111.024239  -304.497441
H  -5267063.546199 13155029.572649  -609.277778
3
Step 659, Time 0.330 ps, Energy -119.889 kcal/mol
O    -65.026768 -1660161.599772    57.658932
H  5276100.307297 13175103.593305  -304.960203
H  -5275068.200885 13175022.017928  -610.203732
3
Step 660, Time 0.331 ps, Energy -119.889 kcal/mol
O    -65.125443 -1662680.813126    57.746426
H  5284106.528153 13195096.162370  -305.422965
H  -5283072.855571 13195014.463207  -611.129686
3
Step 661, Time 0.331 ps, Energy -119.889 kcal/mol
O    -65.224118 -1665200.026481    57.833921
H  5292112.749010 13215088.731436  -305.885727
H  -5291077.510258 13215006.908486  -612.055640
3
Step 662, Time 0.332 ps, Energy -119.889 kcal/mol
O    -65.322793 -1667719.239835    57.921415
H  5300118.969867 13235081.300501  -306.348489
H  -5299082.164944 13234999.353765  -612.981594
3
Step 663, Time 0.332 ps, Energy -119.889 kcal/mol
O    -65.421468 -1670238.453190    58.008910
H  5308125.190724 13255073.869567  -306.811252
H  -5307086.819630 13254991.799044  -613.907548
3
Step 664, Time 0.333 ps, Energy -119.889 kcal/mol
O    -65.520143 -1672757.666544    58.096405
H  5316131.411580 13275066.438632  -307.274014
H  -5315091.474316 13274984.244323  -614.833502
3
Step 665, Time 0.333 ps, Energy -119.889 kcal/mol
O    -65.618818 -1675276.879899    58.183899
H  5324137.632437 13295059.007698  -307.736776
H  -5323096.129002 13294976.689602  -615.759456
3
Step 666, Time 0.334 ps, Energy -119.889 kcal/mol
O    -65.717492 -1677796.093253    58.271394
H  5332143.853294 13315051.576764  -308.199538
H  -5331100.783688 13314969.134881  -616.685410
3
Step 667, Time 0.334 ps, Energy -119.889 kcal/mol
O    -65.816167 -1680315.306608    58.358888
H  5340150.074151 13335044.145829  -308.662300
H  -5339105.438375 13334961.580160  -617.611365
3
Step 668, Time 0.335 ps, Energy -119.889 kcal/mol
O    -65.914842 -1682834.519962    58.446383
H  5348156.295007 13355036.714895  -309.125062
H  -5347110.093061 13354954.025439  -618.537319
3
Step 669, Time 0.335 ps, Energy -119.889 kcal/mol
O    -66.013517 -1685353.733317    58.533877
H  5356162.515864 13375029.283960  -309.587824
H  -5355114.747747 13374946.470717  -619.463273
3
Step 670, Time 0.336 ps, Energy -119.889 kcal/mol
O    -66.112192 -1687872.946672    58.621372
H  5364168.736721 13395021.853026  -310.050586
H  -5363119.402433 13394938.915996  -620.389227
3
Step 671, Time 0.336 ps, Energy -119.889 kcal/mol
O    -66.210867 -1690392.160026    58.708867
H  5372174.957578 13415014.422092  -310.513348
H  -5371124.057119 13414931.361275  -621.315181
3
Step 672, Time 0.337 ps, Energy -119.889 kcal/mol
O    -66.309542 -1692911.373381    58.796361
H  5380181.178434 13435006.991157  -310.976110
H  -5379128.711805 13434923.806554  -622.241135
3
Step 673, Time 0.337 ps, Energy -119.889 kcal/mol
O    -66.408217 -1695430.586735    58.883856
H  5388187.399291 13454999.560223  -311.438872
H  -5387133.366491 13454916.251833  -623.167089
3
Step 674, Time 0.338 ps, Energy -119.889 kcal/mol
O    -66.506892 -1697949.800090    58.971350
H  5396193.620148 13474992.129288  -311.901634
H  -5395138.021178 13474908.697112  -624.093043
3
Step 675, Time 0.338 ps, Energy -119.889 kcal/mol
O    -66.605567 -1700469.013444    59.058845
H  5404199.841004 13494984.698354  -312.364396
H  -5403142.675864 13494901.142391  -625.018997
3
Step 676, Time 0.339 ps, Energy -119.889 kcal/mol
O    -66.704242 -1702988.226799    59.146340
H  5412206.061861 13514977.267420  -312.827158
H  -5411147.330550 13514893.587670  -625.944951
3
Step 677, Time 0.339 ps, Energy -119.889 kcal/mol
O    -66.802917 -1705507.440153    59.233834
H  5420212.282718 13534969.836485  -313.289920
H  -5419151.985236 13534886.032949  -626.870905
3
Step 678, Time 0.340 ps, Energy -119.889 kcal/mol
O    -66.901591 -1708026.653508    59.321329
H  5428218.503575 13554962.405551  -313.752683
H  -5427156.639922 13554878.478228  -627.796859
3
Step 679, Time 0.340 ps, Energy -119.889 kcal/mol
O    -67.000266 -1710545.866862    59.408823
H  5436224.724431 13574954.974616  -314.215445
H  -5435161.294608 13574870.923507  -628.722813
3
Step 680, Time 0.341 ps, Energy -119.889 kcal/mol
O    -67.098941 -1713065.080217    59.496318
H  5444230.945288 13594947.543682  -314.678207
H  -5443165.949294 13594863.368786  -629.648767
3
Step 681, Time 0.341 ps, Energy -119.889 kcal/mol
O    -67.197616 -1715584.293572    59.583812
H  5452237.166145 13614940.112748  -315.140969
H  -5451170.603981 13614855.814065  -630.574722
3
Step 682, Time 0.342 ps, Energy -119.889 kcal/mol
O    -67.296291 -1718103.506926    59.671307
H  5460243.387001 13634932.681813  -315.603731
H  -5459175.258667 13634848.259344  -631.500676
3
Step 683, Time 0.342 ps, Energy -119.889 kcal/mol
O    -67.394966 -1720622.720281    59.758802
H  5468249.607858 13654925.250879  -316.066493
H  -5467179.913353 13654840.704623  -632.426630
3
Step 684, Time 0.343 ps, Energy -119.889 kcal/mol
O    -67.493641 -1723141.933635    59.846296
H  5476255.828715 13674917.819944  -316.529255
H  -5475184.568039 13674833.149902  -633.352584
3
Step 685, Time 0.343 ps, Energy -119.889 kcal/mol
O    -67.592316 -1725661.146990    59.933791
H  5484262.049571 13694910.389010  -316.992017
H  -5483189.222725 13694825.595181  -634.278538
3
Step 686, Time 0.344 ps, Energy -119.889 kcal/mol
O    -67.690991 -1728180.360344    60.021285
H  5492268.270428 13714902.958076  -317.454779
H  -5491193.877411 13714818.040460  -635.204492
3
Step 687, Time 0.344 ps, Energy -119.889 kcal/mol
O    -67.789666 -1730699.573699    60.108780
H  5500274.491285 13734895.527141  -317.917541
H  -5499198.532097 13734810.485739  -636.130446
3
Step 688, Time 0.344 ps, Energy -119.889 kcal/mol
O    -67.888341 -1733218.787053    60.196275
H  5508280.712142 13754888.096207  -318.380303
H  -5507203.186783 13754802.931018  -637.056400
3
Step 689, Time 0.345 ps, Energy -119.889 kcal/mol
O    -67.987016 -1735738.000408    60.283769
H  5516286.932998 13774880.665273  -318.843065
H  -5515207.841469 13774795.376297  -637.982354
3
Step 690, Time 0.345 ps, Energy -119.889 kcal/mol
O    -68.085690 -1738257.213762    60.371264
H  5524293.153855 13794873.234338  -319.305827
H  -5523212.496156 13794787.821576  -638.908308
3
Step 691, Time 0.346 ps, Energy -119.889 kcal/mol
O    -68.184365 -1740776.427117    60.458758
H  5532299.374712 13814865.803404  -319.768589
H  -5531217.150842 13814780.266855  -639.834262
3
Step 692, Time 0.346 ps, Energy -119.889 kcal/mol
O    -68.283040 -1743295.640472    60.546253
H  5540305.595568 13834858.372469  -320.231352
H  -5539221.805528 13834772.712135  -640.760216
3
Step 693, Time 0.347 ps, Energy -119.889 kcal/mol
O    -68.381715 -1745814.853826    60.633747
H  5548311.816425 13854850.941535  -320.694114
H  -5547226.460214 13854765.157414  -641.686170
3
Step 694, Time 0.347 ps, Energy -119.889 kcal/mol
O    -68.480390 -1748334.067181    60.721242
H  5556318.037282 13874843.510601  -321.156876
H  -5555231.114900 13874757.602693  -642.612124
3
Step 695, Time 0.348 ps, Energy -119.889 kcal/mol
O    -68.579065 -1750853.280535    60.808737
H  5564324.258138 13894836.079666  -321.619638
H  -5563235.769586 13894750.047972  -643.538078
3
Step 696, Time 0.348 ps, Energy -119.889 kcal/mol
O    -68.677740 -1753372.493890    60.896231
H  5572330.478995 13914828.648732  -322.082400
H  -5571240.424272 13914742.493251  -644.464033
3
Step 697, Time 0.349 ps, Energy -119.889 kcal/mol
O    -68.776415 -1755891.707244    60.983726
H  5580336.699852 13934821.217798  -322.545162
H  -5579245.078958 13934734.938530  -645.389987
3
Step 698, Time 0.349 ps, Energy -119.889 kcal/mol
O    -68.875090 -1758410.920599    61.071220
H  5588342.920708 13954813.786863  -323.007924
H  -5587249.733644 13954727.383809  -646.315941
3
Step 699, Time 0.350 ps, Energy -119.889 kcal/mol
O    -68.973765 -1760930.133953    61.158715
H  5596349.141565 13974806.355929  -323.470686
H  -5595254.388330 13974719.829088  -647.241895
3
Step 700, Time 0.350 ps, Energy -119.889 kcal/mol
O    -69.072440 -1763449.347308    61.246210
H  5604355.362422 13994798.924995  -323.933448
H  -5603259.043017 13994712.274367  -648.167849
3
Step 701, Time 0.351 ps, Energy -119.889 kcal/mol
O    -69.171114 -1765968.560663    61.333704
H  5612361.583278 14014791.494060  -324.396210
H  -5611263.697703 14014704.719646  -649.093803
3
Step 702, Time 0.351 ps, Energy -119.889 kcal/mol
O    -69.269789 -1768487.774017    61.421199
H  5620367.804135 14034784.063126  -324.858972
H  -5619268.352389 14034697.164925  -650.019757
3
Step 703, Time 0.352 ps, Energy -119.889 kcal/mol
O    -69.368464 -1771006.987372    61.508693
H  5628374.024992 14054776.632192  -325.321734
H  -5627273.007075 14054689.610204  -650.945711
3
Step 704, Time 0.352 ps, Energy -119.889 kcal/mol
O    -69.467139 -1773526.200726    61.596188
H  5636380.245848 14074769.201257  -325.784496
H  -5635277.661761 14074682.055483  -651.871665
3
Step 705, Time 0.353 ps, Energy -119.889 kcal/mol
O    -69.565814 -1776045.414081    61.683683
H  5644386.466705 14094761.770323  -326.247258
H  -5643282.316447 14094674.500762  -652.797619
3
Step 706, Time 0.353 ps, Energy -119.889 kcal/mol
O    -69.664489 -1778564.627435    61.771177
H  5652392.687562 14114754.339389  -326.710020
H  -5651286.971133 14114666.946041  -653.723573
3
Step 707, Time 0.354 ps, Energy -119.889 kcal/mol
O    -69.763164 -1781083.840790    61.858672
H  5660398.908418 14134746.908454  -327.172783
H  -5659291.625819 14134659.391320  -654.649527
3
Step 708, Time 0.354 ps, Energy -119.889 kcal/mol
O    -69.861839 -1783603.054144    61.946166
H  5668405.129275 14154739.477520  -327.635545
H  -5667296.280505 14154651.836599  -655.575481
3
Step 709, Time 0.355 ps, Energy -119.889 kcal/mol
O    -69.960514 -1786122.267499    62.033661
H  5676411.350132 14174732.046586  -328.098307
H  -5675300.935191 14174644.281878  -656.501435
3
Step 710, Time 0.355 ps, Energy -119.889 kcal/mol
O    -70.059189 -1788641.480853    62.121155
H  5684417.570988 14194724.615651  -328.561069
H  -5683305.589877 14194636.727157  -657.427390
3
Step 711, Time 0.356 ps, Energy -119.889 kcal/mol
O    -70.157864 -1791160.694208    62.208650
H  5692423.791845 14214717.184717  -329.023831
H  -5691310.244564 14214629.172436  -658.353344
3
Step 712, Time 0.356 ps, Energy -119.889 kcal/mol
O    -70.256539 -1793679.907563    62.296145
H  5700430.012702 14234709.753783  -329.486593
H  -5699314.899250 14234621.617715  -659.279298
3
Step 713, Time 0.357 ps, Energy -119.889 kcal/mol
O    -70.355213 -1796199.120917    62.383639
H  5708436.233558 14254702.322848  -329.949355
H  -5707319.553936 14254614.062994  -660.205252
3
Step 714, Time 0.357 ps, Energy -119.889 kcal/mol
O    -70.453888 -1798718.334272    62.471134
H  5716442.454415 14274694.891914  -330.412117
H  -5715324.208622 14274606.508274  -661.131206
3
Step 715, Time 0.358 ps, Energy -119.889 kcal/mol
O    -70.552563 -1801237.547626    62.558628
H  5724448.675272 14294687.460980  -330.874879
H  -5723328.863308 14294598.953553  -662.057160
3
Step 716, Time 0.358 ps, Energy -119.889 kcal/mol
O    -70.651238 -1803756.760981    62.646123
H  5732454.896128 14314680.030045  -331.337641
H  -5731333.517994 14314591.398832  -662.983114
3
Step 717, Time 0.359 ps, Energy -119.889 kcal/mol
O    -70.749913 -1806275.974335    62.733618
H  5740461.116985 14334672.599111  -331.800403
H  -5739338.172680 14334583.844111  -663.909068
3
Step 718, Time 0.359 ps, Energy -119.889 kcal/mol
O    -70.848588 -1808795.187690    62.821112
H  5748467.337842 14354665.168177  -332.263165
H  -5747342.827366 14354576.289390  -664.835022
3
Step 719, Time 0.360 ps, Energy -119.889 kcal/mol
O    -70.947263 -1811314.401044    62.908607
H  5756473.558698 14374657.737242  -332.725927
H  -5755347.482052 14374568.734669  -665.760976
3
Step 720, Time 0.360 ps, Energy -119.889 kcal/mol
O    -71.045938 -1813833.614399    62.996101
H  5764479.779555 14394650.306308  -333.188689
H  -5763352.136738 14394561.179948  -666.686930
3
Step 721, Time 0.361 ps, Energy -119.889 kcal/mol
O    -71.144613 -1816352.827754    63.083596
H  5772486.000412 14414642.875374  -333.651452
H  -5771356.791424 14414553.625227  -667.612884
3
Step 722, Time 0.361 ps, Energy -119.889 kcal/mol
O    -71.243288 -1818872.041108    63.171090
H  5780492.221268 14434635.444439  -334.114214
H  -5779361.446110 14434546.070506  -668.538838
3
Step 723, Time 0.362 ps, Energy -119.889 kcal/mol
O    -71.341963 -1821391.254463    63.258585
H  5788498.442125 14454628.013505  -334.576976
H  -5787366.100796 14454538.515785  -669.464792
3
Step 724, Time 0.362 ps, Energy -119.889 kcal/mol
O    -71.440637 -1823910.467817    63.346080
H  5796504.662981 14474620.582571  -335.039738
H  -5795370.755482 14474530.961064  -670.390747
3
Step 725, Time 0.363 ps, Energy -119.889 kcal/mol
O    -71.539312 -1826429.681172    63.433574
H  5804510.883838 14494613.151636  -335.502500
H  -5803375.410168 14494523.406343  -671.316701
3
Step 726, Time 0.363 ps, Energy -119.889 kcal/mol
O    -71.637987 -1828948.894526    63.521069
H  5812517.104695 14514605.720702  -335.965262
H  -5811380.064854 14514515.851622  -672.242655
3
Step 727, Time 0.364 ps, Energy -119.889 kcal/mol
O    -71.736662 -1831468.107881    63.608563
H  5820523.325551 14534598.289768  -336.428024
H  -5819384.719541 14534508.296902  -673.168609
3
Step 728, Time 0.364 ps, Energy -119.889 kcal/mol
O    -71.835337 -1833987.321235    63.696058
H  5828529.546408 14554590.858834  -336.890786
H  -5827389.374227 14554500.742181  -674.094563
3
Step 729, Time 0.365 ps, Energy -119.889 kcal/mol
O    -71.934012 -1836506.534590    63.783553
H  5836535.767265 14574583.427899  -337.353548
H  -5835394.028913 14574493.187460  -675.020517
3
Step 730, Time 0.365 ps, Energy -119.889 kcal/mol
O    -72.032687 -1839025.747945    63.871047
H  5844541.988121 14594575.996965  -337.816310
H  -5843398.683599 14594485.632739  -675.946471
3
Step 731, Time 0.366 ps, Energy -119.889 kcal/mol
O    -72.131362 -1841544.961299    63.958542
H  5852548.208978 14614568.566031  -338.279072
H  -5851403.338285 14614478.078018  -676.872425
3
Step 732, Time 0.366 ps, Energy -119.889 kcal/mol
O    -72.230037 -1844064.174654    64.046036
H  5860554.429834 14634561.135096  -338.741834
H  -5859407.992971 14634470.523297  -677.798379
3
Step 733, Time 0.367 ps, Energy -119.889 kcal/mol
O    -72.328712 -1846583.388008    64.133531
H  5868560.650691 14654553.704162  -339.204596
H  -5867412.647657 14654462.968576  -678.724333
3
Step 734, Time 0.367 ps, Energy -119.889 kcal/mol
O    -72.427387 -1849102.601363    64.221025
H  5876566.871548 14674546.273228  -339.667358
H  -5875417.302343 14674455.413855  -679.650287
3
Step 735, Time 0.368 ps, Energy -119.889 kcal/mol
O    -72.526062 -1851621.814717    64.308520
H  5884573.092404 14694538.842294  -340.130120
H  -5883421.957029 14694447.859134  -680.576241
3
Step 736, Time 0.368 ps, Energy -119.889 kcal/mol
O    -72.624736 -1854141.028072    64.396015
H  5892579.313261 14714531.411359  -340.592883
H  -5891426.611715 14714440.304413  -681.502195
3
Step 737, Time 0.369 ps, Energy -119.889 kcal/mol
O    -72.723411 -1856660.241426    64.483509
H  5900585.534118 14734523.980425  -341.055645
H  -5899431.266401 14734432.749693  -682.428149
3
Step 738, Time 0.369 ps, Energy -119.889 kcal/mol
O    -72.822086 -1859179.454781    64.571004
H  5908591.754974 14754516.549491  -341.518407
H  -5907435.921087 14754425.194972  -683.354103
3
Step 739, Time 0.370 ps, Energy -119.889 kcal/mol
O    -72.920761 -1861698.668136    64.658498
H  5916597.975831 14774509.118556  -341.981169
H  -5915440.575773 14774417.640251  -684.280058
3
Step 740, Time 0.370 ps, Energy -119.889 kcal/mol
O    -73.019436 -1864217.881490    64.745993
H  5924604.196687 14794501.687622  -342.443931
H  -5923445.230459 14794410.085530  -685.206012
3
Step 741, Time 0.371 ps, Energy -119.889 kcal/mol
O    -73.118111 -1866737.094845    64.833488
H  5932610.417544 14814494.256688  -342.906693
H  -5931449.885145 14814402.530809  -686.131966
3
Step 742, Time 0.371 ps, Energy -119.889 kcal/mol
O    -73.216786 -1869256.308199    64.920982
H  5940616.638401 14834486.825754  -343.369455
H  -5939454.539831 14834394.976088  -687.057920
3
Step 743, Time 0.372 ps, Energy -119.889 kcal/mol
O    -73.315461 -1871775.521554    65.008477
H  5948622.859257 14854479.394819  -343.832217
H  -5947459.194517 14854387.421367  -687.983874
3
Step 744, Time 0.372 ps, Energy -119.889 kcal/mol
O    -73.414136 -1874294.734908    65.095971
H  5956629.080114 14874471.963885  -344.294979
H  -5955463.849203 14874379.866646  -688.909828
3
Step 745, Time 0.373 ps, Energy -119.889 kcal/mol
O    -73.512811 -1876813.948263    65.183466
H  5964635.300970 14894464.532951  -344.757741
H  -5963468.503889 14894372.311926  -689.835782
3
Step 746, Time 0.373 ps, Energy -119.889 kcal/mol
O    -73.611486 -1879333.161618    65.270961
H  5972641.521827 14914457.102017  -345.220503
H  -5971473.158575 14914364.757205  -690.761736
3
Step 747, Time 0.374 ps, Energy -119.889 kcal/mol
O    -73.710160 -1881852.374972    65.358455
H  5980647.742684 14934449.671082  -345.683265
H  -5979477.813261 14934357.202484  -691.687690
3
Step 748, Time 0.374 ps, Energy -119.889 kcal/mol
O    -73.808835 -1884371.588327    65.445950
H  5988653.963540 14954442.240148  -346.146027
H  -5987482.467947 14954349.647763  -692.613644
3
Step 749, Time 0.375 ps, Energy -119.889 kcal/mol
O    -73.907510 -1886890.801681    65.533444
H  5996660.184397 14974434.809214  -346.608789
H  -5995487.122633 14974342.093042  -693.539598
3
Step 750, Time 0.376 ps, Energy -119.889 kcal/mol
O    -74.006185 -1889410.015036    65.620939
H  6004666.405253 14994427.378279  -347.071552
H  -6003491.777319 14994334.538321  -694.465552
3
Step 751, Time 0.376 ps, Energy -119.889 kcal/mol
O    -74.104860 -1891929.228390    65.708433
H  6012672.626110 15014419.947345  -347.534314
H  -6011496.432005 15014326.983600  -695.391506
3
Step 752, Time 0.377 ps, Energy -119.889 kcal/mol
O    -74.203535 -1894448.441745    65.795928
H  6020678.846967 15034412.516411  -347.997076
H  -6019501.086691 15034319.428879  -696.317460
3
Step 753, Time 0.377 ps, Energy -119.889 kcal/mol
O    -74.302210 -1896967.655099    65.883423
H  6028685.067823 15054405.085477  -348.459838
H  -6027505.741377 15054311.874159  -697.243415
3
Step 754, Time 0.378 ps, Energy -119.889 kcal/mol
O    -74.400885 -1899486.868454    65.970917
H  6036691.288680 15074397.654542  -348.922600
H  -6035510.396063 15074304.319438  -698.169369
3
Step 755, Time 0.378 ps, Energy -119.889 kcal/mol
O    -74.499560 -1902006.081809    66.058412
H  6044697.509536 15094390.223608  -349.385362
H  -6043515.050749 15094296.764717  -699.095323
3
Step 756, Time 0.379 ps, Energy -119.889 kcal/mol
O    -74.598235 -1904525.295163    66.145906
H  6052703.730393 15114382.792674  -349.848124
H  -6051519.705435 15114289.209996  -700.021277
3
Step 757, Time 0.379 ps, Energy -119.889 kcal/mol
O    -74.696910 -1907044.508518    66.233401
H  6060709.951250 15134375.361740  -350.310886
H  -6059524.360121 15134281.655275  -700.947231
3
Step 758, Time 0.380 ps, Energy -119.889 kcal/mol
O    -74.795585 -1909563.721872    66.320896
H  6068716.172106 15154367.930805  -350.773648
H  -6067529.014807 15154274.100554  -701.873185
3
Step 759, Time 0.380 ps, Energy -119.889 kcal/mol
O    -74.894259 -1912082.935227    66.408390
H  6076722.392963 15174360.499871  -351.236410
H  -6075533.669493 15174266.545833  -702.799139
3
Step 760, Time 0.381 ps, Energy -119.889 kcal/mol
O    -74.992934 -1914602.148581    66.495885
H  6084728.613819 15194353.068937  -351.699172
H  -6083538.324179 15194258.991113  -703.725093
3
Step 761, Time 0.381 ps, Energy -119.889 kcal/mol
O    -75.091609 -1917121.361936    66.583379
H  6092734.834676 15214345.638003  -352.161934
H  -6091542.978865 15214251.436392  -704.651047
3
Step 762, Time 0.382 ps, Energy -119.889 kcal/mol
O    -75.190284 -1919640.575291    66.670874
H  6100741.055533 15234338.207069  -352.624696
H  -6099547.633551 15234243.881671  -705.577001
3
Step 763, Time 0.382 ps, Energy -119.889 kcal/mol
O    -75.288959 -1922159.788645    66.758368
H  6108747.276389 15254330.776134  -353.087458
H  -6107552.288237 15254236.326950  -706.502955
3
Step 764, Time 0.383 ps, Energy -119.889 kcal/mol
O    -75.387634 -1924679.002000    66.845863
H  6116753.497246 15274323.345200  -353.550220
H  -6115556.942923 15274228.772229  -707.428909
3
Step 765, Time 0.383 ps, Energy -119.889 kcal/mol
O    -75.486309 -1927198.215354    66.933358
H  6124759.718102 15294315.914266  -354.012983
H  -6123561.597609 15294221.217508  -708.354863
3
Step 766, Time 0.384 ps, Energy -119.889 kcal/mol
O    -75.584984 -1929717.428709    67.020852
H  6132765.938959 15314308.483332  -354.475745
H  -6131566.252295 15314213.662788  -709.280817
3
Step 767, Time 0.384 ps, Energy -119.889 kcal/mol
O    -75.683659 -1932236.642063    67.108347
H  6140772.159815 15334301.052397  -354.938507
H  -6139570.906981 15334206.108067  -710.206772
3
Step 768, Time 0.385 ps, Energy -119.889 kcal/mol
O    -75.782334 -1934755.855418    67.195841
H  6148778.380672 15354293.621463  -355.401269
H  -6147575.561667 15354198.553346  -711.132726
3
Step 769, Time 0.385 ps, Energy -119.889 kcal/mol
O    -75.881009 -1937275.068772    67.283336
H  6156784.601529 15374286.190529  -355.864031
H  -6155580.216353 15374190.998625  -712.058680
3
Step 770, Time 0.386 ps, Energy -119.889 kcal/mol
O    -75.979684 -1939794.282127    67.370831
H  6164790.822385 15394278.759595  -356.326793
H  -6163584.871039 15394183.443904  -712.984634
3
Step 771, Time 0.386 ps, Energy -119.889 kcal/mol
O    -76.078358 -1942313.495482    67.458325
H  6172797.043242 15414271.328660  -356.789555
H  -6171589.525725 15414175.889183  -713.910588
3
Step 772, Time 0.387 ps, Energy -119.889 kcal/mol
O    -76.177033 -1944832.708836    67.545820
H  6180803.264098 15434263.897726  -357.252317
H  -6179594.180411 15434168.334463  -714.836542
3
Step 773, Time 0.387 ps, Energy -119.889 kcal/mol
O    -76.275708 -1947351.922191    67.633314
H  6188809.484955 15454256.466792  -357.715079
H  -6187598.835097 15454160.779742  -715.762496
3
Step 774, Time 0.388 ps, Energy -119.889 kcal/mol
O    -76.374383 -1949871.135545    67.720809
H  6196815.705811 15474249.035858  -358.177841
H  -6195603.489783 15474153.225021  -716.688450
3
Step 775, Time 0.388 ps, Energy -119.889 kcal/mol
O    -76.473058 -1952390.348900    67.808303
H  6204821.926668 15494241.604924  -358.640603
H  -6203608.144469 15494145.670300  -717.614404
3
Step 776, Time 0.389 ps, Energy -119.889 kcal/mol
O    -76.571733 -1954909.562254    67.895798
H  6212828.147524 15514234.173989  -359.103365
H  -6211612.799155 15514138.115579  -718.540358
3
Step 777, Time 0.389 ps, Energy -119.889 kcal/mol
O    -76.670408 -1957428.775609    67.983293
H  6220834.368381 15534226.743055  -359.566127
H  -6219617.453841 15534130.560858  -719.466312
3
Step 778, Time 0.390 ps, Energy -119.889 kcal/mol
O    -76.769083 -1959947.988964    68.070787
H  6228840.589238 15554219.312121  -360.028889
H  -6227622.108527 15554123.006138  -720.392266
3
Step 779, Time 0.390 ps, Energy -119.889 kcal/mol
O    -76.867758 -1962467.202318    68.158282
H  6236846.810094 15574211.881187  -360.491652
H  -6235626.763213 15574115.451417  -721.318220
3
Step 780, Time 0.391 ps, Energy -119.889 kcal/mol
O    -76.966433 -1964986.415673    68.245776
H  6244853.030951 15594204.450253  -360.954414
H  -6243631.417899 15594107.896696  -722.244174
3
Step 781, Time 0.391 ps, Energy -119.889 kcal/mol
O    -77.065108 -1967505.629027    68.333271
H  6252859.251807 15614197.019318  -361.417176
H  -6251636.072585 15614100.341975  -723.170128
3
Step 782, Time 0.392 ps, Energy -119.889 kcal/mol
O    -77.163782 -1970024.842382    68.420766
H  6260865.472664 15634189.588384  -361.879938
H  -6259640.727271 15634092.787254  -724.096083
3
Step 783, Time 0.392 ps, Energy -119.889 kcal/mol
O    -77.262457 -1972544.055736    68.508260
H  6268871.693520 15654182.157450  -362.342700
H  -6267645.381957 15654085.232534  -725.022037
3
Step 784, Time 0.393 ps, Energy -119.889 kcal/mol
O    -77.361132 -1975063.269091    68.595755
H  6276877.914377 15674174.726516  -362.805462
H  -6275650.036643 15674077.677813  -725.947991
3
Step 785, Time 0.393 ps, Energy -119.889 kcal/mol
O    -77.459807 -1977582.482446    68.683249
H  6284884.135233 15694167.295582  -363.268224
H  -6283654.691329 15694070.123092  -726.873945
3
Step 786, Time 0.394 ps, Energy -119.889 kcal/mol
O    -77.558482 -1980101.695800    68.770744
H  6292890.356090 15714159.864647  -363.730986
H  -6291659.346015 15714062.568371  -727.799899
3
Step 787, Time 0.394 ps, Energy -119.889 kcal/mol
O    -77.657157 -1982620.909155    68.858239
H  6300896.576947 15734152.433713  -364.193748
H  -6299664.000701 15734055.013650  -728.725853
3
Step 788, Time 0.395 ps, Energy -119.889 kcal/mol
O    -77.755832 -1985140.122509    68.945733
H  6308902.797803 15754145.002779  -364.656510
H  -6307668.655387 15754047.458929  -729.651807
3
Step 789, Time 0.395 ps, Energy -119.889 kcal/mol
O    -77.854507 -1987659.335864    69.033228
H  6316909.018660 15774137.571845  -365.119272
H  -6315673.310073 15774039.904209  -730.577761
3
Step 790, Time 0.396 ps, Energy -119.889 kcal/mol
O    -77.953182 -1990178.549218    69.120722
H  6324915.239516 15794130.140911  -365.582034
H  -6323677.964759 15794032.349488  -731.503715
3
Step 791, Time 0.396 ps, Energy -119.889 kcal/mol
O    -78.051857 -1992697.762573    69.208217
H  6332921.460373 15814122.709976  -366.044796
H  -6331682.619445 15814024.794767  -732.429669
3
Step 792, Time 0.397 ps, Energy -119.889 kcal/mol
O    -78.150532 -1995216.975928    69.295711
H  6340927.681229 15834115.279042  -366.507558
H  -6339687.274131 15834017.240046  -733.355623
3
Step 793, Time 0.397 ps, Energy -119.889 kcal/mol
O    -78.249207 -1997736.189282    69.383206
H  6348933.902086 15854107.848108  -366.970321
H  -6347691.928817 15854009.685325  -734.281577
3
Step 794, Time 0.398 ps, Energy -119.889 kcal/mol
O    -78.347881 -2000255.402637    69.470701
H  6356940.122942 15874100.417174  -367.433083
H  -6355696.583503 15874002.130605  -735.207531
3
Step 795, Time 0.398 ps, Energy -119.889 kcal/mol
O    -78.446556 -2002774.615991    69.558195
H  6364946.343799 15894092.986240  -367.895845
H  -6363701.238189 15893994.575884  -736.133485
3
Step 796, Time 0.399 ps, Energy -119.889 kcal/mol
O    -78.545231 -2005293.829346    69.645690
H  6372952.564655 15914085.555305  -368.358607
H  -6371705.892875 15913987.021163  -737.059440
3
Step 797, Time 0.399 ps, Energy -119.889 kcal/mol
O    -78.643906 -2007813.042700    69.733184
H  6380958.785512 15934078.124371  -368.821369
H  -6379710.547561 15933979.466442  -737.985394
3
Step 798, Time 0.400 ps, Energy -119.889 kcal/mol
O    -78.742581 -2010332.256055    69.820679
H  6388965.006368 15954070.693437  -369.284131
H  -6387715.202247 15953971.911722  -738.911348
3
Step 799, Time 0.400 ps, Energy -119.889 kcal/mol
O    -78.841256 -2012851.469410    69.908174
H  6396971.227225 15974063.262503  -369.746893
H  -6395719.856932 15973964.357001  -739.837302
3
Step 800, Time 0.401 ps, Energy -119.889 kcal/mol
O    -78.939931 -2015370.682764    69.995668
H  6404977.448082 15994055.831569  -370.209655
H  -6403724.511618 15993956.802280  -740.763256
3
Step 801, Time 0.401 ps, Energy -119.889 kcal/mol
O    -79.038606 -2017889.896119    70.083163
H  6412983.668938 16014048.400635  -370.672417
H  -6411729.166304 16013949.247559  -741.689210
3
Step 802, Time 0.402 ps, Energy -119.889 kcal/mol
O    -79.137281 -2020409.109473    70.170657
H  6420989.889795 16034040.969700  -371.135179
H  -6419733.820990 16033941.692838  -742.615164
3
Step 803, Time 0.402 ps, Energy -119.889 kcal/mol
O    -79.235956 -2022928.322828    70.258152
H  6428996.110651 16054033.538766  -371.597941
H  -6427738.475676 16053934.138118  -743.541118
3
Step 804, Time 0.403 ps, Energy -119.889 kcal/mol
O    -79.334631 -2025447.536182    70.345646
H  6437002.331508 16074026.107832  -372.060703
H  -6435743.130362 16073926.583397  -744.467072
3
Step 805, Time 0.403 ps, Energy -119.889 kcal/mol
O    -79.433305 -2027966.749537    70.433141
H  6445008.552364 16094018.676898  -372.523465
H  -6443747.785048 16093919.028676  -745.393026
3
Step 806, Time 0.404 ps, Energy -119.889 kcal/mol
O    -79.531980 -2030485.962892    70.520636
H  6453014.773221 16114011.245964  -372.986227
H  -6451752.439734 16113911.473955  -746.318980
3
Step 807, Time 0.404 ps, Energy -119.889 kcal/mol
O    -79.630655 -2033005.176246    70.608130
H  6461020.994077 16134003.815030  -373.448989
H  -6459757.094420 16133903.919234  -747.244934
3
Step 808, Time 0.405 ps, Energy -119.889 kcal/mol
O    -79.729330 -2035524.389601    70.695625
H  6469027.214934 16153996.384095  -373.911752
H  -6467761.749106 16153896.364514  -748.170888
3
Step 809, Time 0.405 ps, Energy -119.889 kcal/mol
O    -79.828005 -2038043.602955    70.783119
H  6477033.435790 16173988.953161  -374.374514
H  -6475766.403792 16173888.809793  -749.096842
3
Step 810, Time 0.406 ps, Energy -119.889 kcal/mol
O    -79.926680 -2040562.816310    70.870614
H  6485039.656647 16193981.522227  -374.837276
H  -6483771.058478 16193881.255072  -750.022797
3
Step 811, Time 0.406 ps, Energy -119.889 kcal/mol
O    -80.025355 -2043082.029664    70.958109
H  6493045.877503 16213974.091293  -375.300038
H  -6491775.713164 16213873.700351  -750.948751
3
Step 812, Time 0.406 ps, Energy -119.889 kcal/mol
O    -80.124030 -2045601.243019    71.045603
H  6501052.098360 16233966.660359  -375.762800
H  -6499780.367850 16233866.145631  -751.874705
3
Step 813, Time 0.407 ps, Energy -119.889 kcal/mol
O    -80.222705 -2048120.456374    71.133098
H  6509058.319216 16253959.229425  -376.225562
H  -6507785.022536 16253858.590910  -752.800659
3
Step 814, Time 0.407 ps, Energy -119.889 kcal/mol
O    -80.321380 -2050639.669728    71.220592
H  6517064.540073 16273951.798490  -376.688324
H  -6515789.677222 16273851.036189  -753.726613
3
Step 815, Time 0.408 ps, Energy -119.889 kcal/mol
O    -80.420055 -2053158.883083    71.308087
H  6525070.760929 16293944.367556  -377.151086
H  -6523794.331908 16293843.481468  -754.652567
3
Step 816, Time 0.408 ps, Energy -119.889 kcal/mol
O    -80.518730 -2055678.096437    71.395581
H  6533076.981786 16313936.936622  -377.613848
H  -6531798.986593 16313835.926748  -755.578521
3
Step 817, Time 0.409 ps, Energy -119.889 kcal/mol
O    -80.617404 -2058197.309792    71.483076
H  6541083.202642 16333929.505688  -378.076610
H  -6539803.641279 16333828.372027  -756.504475
3
Step 818, Time 0.409 ps, Energy -119.889 kcal/mol
O    -80.716079 -2060716.523146    71.570571
H  6549089.423499 16353922.074754  -378.539372
H  -6547808.295965 16353820.817306  -757.430429
3
Step 819, Time 0.410 ps, Energy -119.889 kcal/mol
O    -80.814754 -2063235.736501    71.658065
H  6557095.644355 16373914.643820  -379.002134
H  -6555812.950651 16373813.262585  -758.356383
3
Step 820, Time 0.410 ps, Energy -119.889 kcal/mol
O    -80.913429 -2065754.949856    71.745560
H  6565101.865212 16393907.212886  -379.464896
H  -6563817.605337 16393805.707865  -759.282337
3
Step 821, Time 0.411 ps, Energy -119.889 kcal/mol
O    -81.012104 -2068274.163210    71.833054
H  6573108.086068 16413899.781951  -379.927658
H  -6571822.260023 16413798.153144  -760.208291
3
Step 822, Time 0.411 ps, Energy -119.889 kcal/mol
O    -81.110779 -2070793.376565    71.920549
H  6581114.306925 16433892.351017  -380.390421
H  -6579826.914709 16433790.598423  -761.134245
3
Step 823, Time 0.412 ps, Energy -119.889 kcal/mol
O    -81.209454 -2073312.589919    72.008044
H  6589120.527781 16453884.920083  -380.853183
H  -6587831.569395 16453783.043702  -762.060199
3
Step 824, Time 0.412 ps, Energy -119.889 kcal/mol
O    -81.308129 -2075831.803274    72.095538
H  6597126.748638 16473877.489149  -381.315945
H  -6595836.224081 16473775.488982  -762.986154
3
Step 825, Time 0.413 ps, Energy -119.889 kcal/mol
O    -81.406804 -2078351.016629    72.183033
H  6605132.969494 16493870.058215  -381.778707
H  -6603840.878767 16493767.934261  -763.912108
3
Step 826, Time 0.413 ps, Energy -119.889 kcal/mol
O    -81.505479 -2080870.229983    72.270527
H  6613139.190351 16513862.627281  -382.241469
H  -6611845.533453 16513760.379540  -764.838062
3
Step 827, Time 0.414 ps, Energy -119.889 kcal/mol
O    -81.604154 -2083389.443338    72.358022
H  6621145.411207 16533855.196347  -382.704231
H  -6619850.188139 16533752.824819  -765.764016
3
Step 828, Time 0.414 ps, Energy -119.889 kcal/mol
O    -81.702829 -2085908.656692    72.445516
H  6629151.632064 16553847.765412  -383.166993
H  -6627854.842825 16553745.270099  -766.689970
3
Step 829, Time 0.415 ps, Energy -119.889 kcal/mol
O    -81.801503 -2088427.870047    72.533011
H  6637157.852920 16573840.334478  -383.629755
H  -6635859.497510 16573737.715378  -767.615924
3
Step 830, Time 0.415 ps, Energy -119.889 kcal/mol
O    -81.900178 -2090947.083401    72.620506
H  6645164.073777 16593832.903544  -384.092517
H  -6643864.152196 16593730.160657  -768.541878
3
Step 831, Time 0.416 ps, Energy -119.889 kcal/mol
O    -81.998853 -2093466.296756    72.708000
H  6653170.294633 16613825.472610  -384.555279
H  -6651868.806882 16613722.605936  -769.467832
3
Step 832, Time 0.416 ps, Energy -119.889 kcal/mol
O    -82.097528 -2095985.510111    72.795495
H  6661176.515490 16633818.041676  -385.018041
H  -6659873.461568 16633715.051216  -770.393786
3
Step 833, Time 0.417 ps, Energy -119.889 kcal/mol
O    -82.196203 -2098504.723465    72.882989
H  6669182.736346 16653810.610742  -385.480803
H  -6667878.116254 16653707.496495  -771.319740
3
Step 834, Time 0.417 ps, Energy -119.889 kcal/mol
O    -82.294878 -2101023.936820    72.970484
H  6677188.957203 16673803.179808  -385.943565
H  -6675882.770940 16673699.941774  -772.245694
3
Step 835, Time 0.418 ps, Energy -119.889 kcal/mol
O    -82.393553 -2103543.150174    73.057979
H  6685195.178059 16693795.748874  -386.406327
H  -6683887.425626 16693692.387053  -773.171648
3
Step 836, Time 0.418 ps, Energy -119.889 kcal/mol
O    -82.492228 -2106062.363529    73.145473
H  6693201.398916 16713788.317939  -386.869089
H  -6691892.080312 16713684.832333  -774.097602
3
Step 837, Time 0.419 ps, Energy -119.889 kcal/mol
O    -82.590903 -2108581.576883    73.232968
H  6701207.619772 16733780.887005  -387.331852
H  -6699896.734998 16733677.277612  -775.023556
3
Step 838, Time 0.419 ps, Energy -119.889 kcal/mol
O    -82.689578 -2111100.790238    73.320462
H  6709213.840629 16753773.456071  -387.794614
H  -6707901.389684 16753669.722891  -775.949510
3
Step 839, Time 0.420 ps, Energy -119.889 kcal/mol
O    -82.788253 -2113620.003593    73.407957
H  6717220.061485 16773766.025137  -388.257376
H  -6715906.044370 16773662.168170  -776.875465
3
Step 840, Time 0.420 ps, Energy -119.889 kcal/mol
O    -82.886927 -2116139.216947    73.495452
H  6725226.282342 16793758.594203  -388.720138
H  -6723910.699055 16793654.613450  -777.801419
3
Step 841, Time 0.421 ps, Energy -119.889 kcal/mol
O    -82.985602 -2118658.430302    73.582946
H  6733232.503198 16813751.163269  -389.182900
H  -6731915.353741 16813647.058729  -778.727373
3
Step 842, Time 0.421 ps, Energy -119.889 kcal/mol
O    -83.084277 -2121177.643656    73.670441
H  6741238.724055 16833743.732335  -389.645662
H  -6739920.008427 16833639.504008  -779.653327
3
Step 843, Time 0.422 ps, Energy -119.889 kcal/mol
O    -83.182952 -2123696.857011    73.757935
H  6749244.944911 16853736.301401  -390.108424
H  -6747924.663113 16853631.949288  -780.579281
3
Step 844, Time 0.422 ps, Energy -119.889 kcal/mol
O    -83.281627 -2126216.070365    73.845430
H  6757251.165768 16873728.870466  -390.571186
H  -6755929.317799 16873624.394567  -781.505235
3
Step 845, Time 0.423 ps, Energy -119.889 kcal/mol
O    -83.380302 -2128735.283720    73.932924
H  6765257.386624 16893721.439532  -391.033948
H  -6763933.972485 16893616.839846  -782.431189
3
Step 846, Time 0.423 ps, Energy -119.889 kcal/mol
O    -83.478977 -2131254.497075    74.020419
H  6773263.607481 16913714.008598  -391.496710
H  -6771938.627171 16913609.285125  -783.357143
3
Step 847, Time 0.424 ps, Energy -119.889 kcal/mol
O    -83.577652 -2133773.710429    74.107914
H  6781269.828337 16933706.577664  -391.959472
H  -6779943.281857 16933601.730405  -784.283097
3
Step 848, Time 0.424 ps, Energy -119.889 kcal/mol
O    -83.676327 -2136292.923784    74.195408
H  6789276.049194 16953699.146730  -392.422234
H  -6787947.936543 16953594.175684  -785.209051
3
Step 849, Time 0.425 ps, Energy -119.889 kcal/mol
O    -83.775002 -2138812.137138    74.282903
H  6797282.270050 16973691.715796  -392.884996
H  -6795952.591229 16973586.620963  -786.135005
3
Step 850, Time 0.425 ps, Energy -119.889 kcal/mol
O    -83.873677 -2141331.350493    74.370397
H  6805288.490906 16993684.284862  -393.347758
H  -6803957.245914 16993579.066243  -787.060959
3
Step 851, Time 0.426 ps, Energy -119.889 kcal/mol
O    -83.972352 -2143850.563848    74.457892
H  6813294.711763 17013676.853928  -393.810521
H  -6811961.900600 17013571.511522  -787.986913
3
Step 852, Time 0.426 ps, Energy -119.889 kcal/mol
O    -84.071026 -2146369.777202    74.545387
H  6821300.932619 17033669.422994  -394.273283
H  -6819966.555286 17033563.956801  -788.912867
3
Step 853, Time 0.427 ps, Energy -119.889 kcal/mol
O    -84.169701 -2148888.990557    74.632881
H  6829307.153476 17053661.992060  -394.736045
H  -6827971.209972 17053556.402080  -789.838822
3
Step 854, Time 0.427 ps, Energy -119.889 kcal/mol
O    -84.268376 -2151408.203911    74.720376
H  6837313.374332 17073654.561125  -395.198807
H  -6835975.864658 17073548.847360  -790.764776
3
Step 855, Time 0.428 ps, Energy -119.889 kcal/mol
O    -84.367051 -2153927.417266    74.807870
H  6845319.595189 17093647.130191  -395.661569
H  -6843980.519344 17093541.292639  -791.690730
3
Step 856, Time 0.428 ps, Energy -119.889 kcal/mol
O    -84.465726 -2156446.630620    74.895365
H  6853325.816045 17113639.699257  -396.124331
H  -6851985.174030 17113533.737918  -792.616684
3
Step 857, Time 0.429 ps, Energy -119.889 kcal/mol
O    -84.564401 -2158965.843975    74.982859
H  6861332.036902 17133632.268323  -396.587093
H  -6859989.828716 17133526.183198  -793.542638
3
Step 858, Time 0.429 ps, Energy -119.889 kcal/mol
O    -84.663076 -2161485.057330    75.070354
H  6869338.257758 17153624.837389  -397.049855
H  -6867994.483401 17153518.628477  -794.468592
3
Step 859, Time 0.430 ps, Energy -119.889 kcal/mol
O    -84.761751 -2164004.270684    75.157849
H  6877344.478615 17173617.406455  -397.512617
H  -6875999.138087 17173511.073756  -795.394546
3
Step 860, Time 0.430 ps, Energy -119.889 kcal/mol
O    -84.860426 -2166523.484039    75.245343
H  6885350.699471 17193609.975521  -397.975379
H  -6884003.792773 17193503.519035  -796.320500
3
Step 861, Time 0.431 ps, Energy -119.889 kcal/mol
O    -84.959101 -2169042.697393    75.332838
H  6893356.920328 17213602.544587  -398.438141
H  -6892008.447459 17213495.964315  -797.246454
3
Step 862, Time 0.431 ps, Energy -119.889 kcal/mol
O    -85.057776 -2171561.910748    75.420332
H  6901363.141184 17233595.113653  -398.900903
H  -6900013.102145 17233488.409594  -798.172408
3
Step 863, Time 0.432 ps, Energy -119.889 kcal/mol
O    -85.156450 -2174081.124103    75.507827
H  6909369.362040 17253587.682719  -399.363665
H  -6908017.756831 17253480.854873  -799.098362
3
Step 864, Time 0.432 ps, Energy -119.889 kcal/mol
O    -85.255125 -2176600.337457    75.595322
H  6917375.582897 17273580.251785  -399.826427
H  -6916022.411517 17273473.300153  -800.024316
3
Step 865, Time 0.433 ps, Energy -119.889 kcal/mol
O    -85.353800 -2179119.550812    75.682816
H  6925381.803753 17293572.820850  -400.289189
H  -6924027.066203 17293465.745432  -800.950270
3
Step 866, Time 0.433 ps, Energy -119.889 kcal/mol
O    -85.452475 -2181638.764166    75.770311
H  6933388.024610 17313565.389916  -400.751952
H  -6932031.720889 17313458.190711  -801.876224
3
Step 867, Time 0.434 ps, Energy -119.889 kcal/mol
O    -85.551150 -2184157.977521    75.857805
H  6941394.245466 17333557.958982  -401.214714
H  -6940036.375574 17333450.635991  -802.802179
3
Step 868, Time 0.434 ps, Energy -119.889 kcal/mol
O    -85.649825 -2186677.190875    75.945300
H  6949400.466323 17353550.528048  -401.677476
H  -6948041.030260 17353443.081270  -803.728133
3
Step 869, Time 0.435 ps, Energy -119.889 kcal/mol
O    -85.748500 -2189196.404230    76.032794
H  6957406.687179 17373543.097114  -402.140238
H  -6956045.684946 17373435.526549  -804.654087
3
Step 870, Time 0.435 ps, Energy -119.889 kcal/mol
O    -85.847175 -2191715.617585    76.120289
H  6965412.908036 17393535.666180  -402.603000
H  -6964050.339632 17393427.971829  -805.580041
3
Step 871, Time 0.436 ps, Energy -119.889 kcal/mol
O    -85.945850 -2194234.830939    76.207784
H  6973419.128892 17413528.235246  -403.065762
H  -6972054.994318 17413420.417108  -806.505995
3
Step 872, Time 0.436 ps, Energy -119.889 kcal/mol
O    -86.044525 -2196754.044294    76.295278
H  6981425.349749 17433520.804312  -403.528524
H  -6980059.649004 17433412.862387  -807.431949
3
Step 873, Time 0.437 ps, Energy -119.889 kcal/mol
O    -86.143200 -2199273.257648    76.382773
H  6989431.570605 17453513.373378  -403.991286
H  -6988064.303690 17453405.307666  -808.357903
3
Step 874, Time 0.438 ps, Energy -119.889 kcal/mol
O    -86.241875 -2201792.471003    76.470267
H  6997437.791461 17473505.942444  -404.454048
H  -6996068.958375 17473397.752946  -809.283857
3
Step 875, Time 0.438 ps, Energy -119.889 kcal/mol
O    -86.340549 -2204311.684358    76.557762
H  7005444.012318 17493498.511510  -404.916810
H  -7004073.613061 17493390.198225  -810.209811
3
Step 876, Time 0.439 ps, Energy -119.889 kcal/mol
O    -86.439224 -2206830.897712    76.645257
H  7013450.233174 17513491.080576  -405.379572
H  -7012078.267747 17513382.643504  -811.135765
3
Step 877, Time 0.439 ps, Energy -119.889 kcal/mol
O    -86.537899 -2209350.111067    76.732751
H  7021456.454031 17533483.649642  -405.842334
H  -7020082.922433 17533375.088784  -812.061719
3
Step 878, Time 0.440 ps, Energy -119.889 kcal/mol
O    -86.636574 -2211869.324421    76.820246
H  7029462.674887 17553476.218707  -406.305096
H  -7028087.577119 17553367.534063  -812.987673
3
Step 879, Time 0.440 ps, Energy -119.889 kcal/mol
O    -86.735249 -2214388.537776    76.907740
H  7037468.895744 17573468.787773  -406.767858
H  -7036092.231805 17573359.979342  -813.913627
3
Step 880, Time 0.441 ps, Energy -119.889 kcal/mol
O    -86.833924 -2216907.751130    76.995235
H  7045475.116600 17593461.356839  -407.230621
H  -7044096.886491 17593352.424622  -814.839581
3
Step 881, Time 0.441 ps, Energy -119.889 kcal/mol
O    -86.932599 -2219426.964485    77.082730
H  7053481.337457 17613453.925905  -407.693383
H  -7052101.541176 17613344.869901  -815.765535
3
Step 882, Time 0.442 ps, Energy -119.889 kcal/mol
O    -87.031274 -2221946.177840    77.170224
H  7061487.558313 17633446.494971  -408.156145
H  -7060106.195862 17633337.315180  -816.691490
3
Step 883, Time 0.442 ps, Energy -119.889 kcal/mol
O    -87.129949 -2224465.391194    77.257719
H  7069493.779169 17653439.064037  -408.618907
H  -7068110.850548 17653329.760460  -817.617444
3
Step 884, Time 0.443 ps, Energy -119.889 kcal/mol
O    -87.228624 -2226984.604549    77.345213
H  7077500.000026 17673431.633103  -409.081669
H  -7076115.505234 17673322.205739  -818.543398
3
Step 885, Time 0.443 ps, Energy -119.889 kcal/mol
O    -87.327299 -2229503.817903    77.432708
H  7085506.220882 17693424.202169  -409.544431
H  -7084120.159920 17693314.651018  -819.469352
3
Step 886, Time 0.444 ps, Energy -119.889 kcal/mol
O    -87.425973 -2232023.031258    77.520202
H  7093512.441739 17713416.771235  -410.007193
H  -7092124.814606 17713307.096298  -820.395306
3
Step 887, Time 0.444 ps, Energy -119.889 kcal/mol
O    -87.524648 -2234542.244613    77.607697
H  7101518.662595 17733409.340301  -410.469955
H  -7100129.469292 17733299.541577  -821.321260
3
Step 888, Time 0.445 ps, Energy -119.889 kcal/mol
O    -87.623323 -2237061.457967    77.695192
H  7109524.883452 17753401.909367  -410.932717
H  -7108134.123977 17753291.986856  -822.247214
3
Step 889, Time 0.445 ps, Energy -119.889 kcal/mol
O    -87.721998 -2239580.671322    77.782686
H  7117531.104308 17773394.478433  -411.395479
H  -7116138.778663 17773284.432136  -823.173168
3
Step 890, Time 0.446 ps, Energy -119.889 kcal/mol
O    -87.820673 -2242099.884676    77.870181
H  7125537.325164 17793387.047499  -411.858241
H  -7124143.433349 17793276.877415  -824.099122
3
Step 891, Time 0.446 ps, Energy -119.889 kcal/mol
O    -87.919348 -2244619.098031    77.957675
H  7133543.546021 17813379.616565  -412.321003
H  -7132148.088035 17813269.322694  -825.025076
3
Step 892, Time 0.447 ps, Energy -119.889 kcal/mol
O    -88.018023 -2247138.311386    78.045170
H  7141549.766877 17833372.185631  -412.783765
H  -7140152.742721 17833261.767974  -825.951030
3
Step 893, Time 0.447 ps, Energy -119.889 kcal/mol
O    -88.116698 -2249657.524740    78.132665
H  7149555.987734 17853364.754697  -413.246527
H  -7148157.397407 17853254.213253  -826.876984
3
Step 894, Time 0.448 ps, Energy -119.889 kcal/mol
O    -88.215373 -2252176.738095    78.220159
H  7157562.208590 17873357.323763  -413.709290
H  -7156162.052093 17873246.658532  -827.802938
3
Step 895, Time 0.448 ps, Energy -119.889 kcal/mol
O    -88.314048 -2254695.951449    78.307654
H  7165568.429447 17893349.892829  -414.172052
H  -7164166.706778 17893239.103812  -828.728892
3
Step 896, Time 0.449 ps, Energy -119.889 kcal/mol
O    -88.412723 -2257215.164804    78.395148
H  7173574.650303 17913342.461894  -414.634814
H  -7172171.361464 17913231.549091  -829.654847
3
Step 897, Time 0.449 ps, Energy -119.889 kcal/mol
O    -88.511398 -2259734.378158    78.482643
H  7181580.871159 17933335.030960  -415.097576
H  -7180176.016150 17933223.994370  -830.580801
3
Step 898, Time 0.450 ps, Energy -119.889 kcal/mol
O    -88.610072 -2262253.591513    78.570137
H  7189587.092016 17953327.600026  -415.560338
H  -7188180.670836 17953216.439650  -831.506755
3
Step 899, Time 0.450 ps, Energy -119.889 kcal/mol
O    -88.708747 -2264772.804868    78.657632
H  7197593.312872 17973320.169092  -416.023100
H  -7196185.325522 17973208.884929  -832.432709
3
Step 900, Time 0.451 ps, Energy -119.889 kcal/mol
O    -88.807422 -2267292.018222    78.745127
H  7205599.533729 17993312.738158  -416.485862
H  -7204189.980208 17993201.330208  -833.358663
3
Step 901, Time 0.451 ps, Energy -119.889 kcal/mol
O    -88.906097 -2269811.231577    78.832621
H  7213605.754585 18013305.307224  -416.948624
H  -7212194.634893 18013193.775488  -834.284617
3
Step 902, Time 0.452 ps, Energy -119.889 kcal/mol
O    -89.004772 -2272330.444931    78.920116
H  7221611.975441 18033297.876290  -417.411386
H  -7220199.289579 18033186.220767  -835.210571
3
Step 903, Time 0.452 ps, Energy -119.889 kcal/mol
O    -89.103447 -2274849.658286    79.007610
H  7229618.196298 18053290.445356  -417.874148
H  -7228203.944265 18053178.666047  -836.136525
3
Step 904, Time 0.453 ps, Energy -119.889 kcal/mol
O    -89.202122 -2277368.871641    79.095105
H  7237624.417154 18073283.014422  -418.336910
H  -7236208.598951 18073171.111326  -837.062479
3
Step 905, Time 0.453 ps, Energy -119.889 kcal/mol
O    -89.300797 -2279888.084995    79.182600
H  7245630.638011 18093275.583488  -418.799672
H  -7244213.253637 18093163.556605  -837.988433
3
Step 906, Time 0.454 ps, Energy -119.889 kcal/mol
O    -89.399472 -2282407.298350    79.270094
H  7253636.858867 18113268.152554  -419.262434
H  -7252217.908323 18113156.001885  -838.914387
3
Step 907, Time 0.454 ps, Energy -119.889 kcal/mol
O    -89.498147 -2284926.511704    79.357589
H  7261643.079724 18133260.721620  -419.725196
H  -7260222.563008 18133148.447164  -839.840341
3
Step 908, Time 0.455 ps, Energy -119.889 kcal/mol
O    -89.596822 -2287445.725059    79.445083
H  7269649.300580 18153253.290686  -420.187958
H  -7268227.217694 18153140.892443  -840.766295
3
Step 909, Time 0.455 ps, Energy -119.889 kcal/mol
O    -89.695497 -2289964.938414    79.532578
H  7277655.521436 18173245.859752  -420.650721
H  -7276231.872380 18173133.337723  -841.692249
3
Step 910, Time 0.456 ps, Energy -119.889 kcal/mol
O    -89.794171 -2292484.151768    79.620072
H  7285661.742293 18193238.428818  -421.113483
H  -7284236.527066 18193125.783002  -842.618204
3
Step 911, Time 0.456 ps, Energy -119.889 kcal/mol
O    -89.892846 -2295003.365123    79.707567
H  7293667.963149 18213230.997884  -421.576245
H  -7292241.181752 18213118.228281  -843.544158
3
Step 912, Time 0.457 ps, Energy -119.889 kcal/mol
O    -89.991521 -2297522.578477    79.795062
H  7301674.184006 18233223.566950  -422.039007
H  -7300245.836438 18233110.673561  -844.470112
3
Step 913, Time 0.457 ps, Energy -119.889 kcal/mol
O    -90.090196 -2300041.791832    79.882556
H  7309680.404862 18253216.136016  -422.501769
H  -7308250.491123 18253103.118840  -845.396066
3
Step 914, Time 0.458 ps, Energy -119.889 kcal/mol
O    -90.188871 -2302561.005187    79.970051
H  7317686.625718 18273208.705082  -422.964531
H  -7316255.145809 18273095.564120  -846.322020
3
Step 915, Time 0.458 ps, Energy -119.889 kcal/mol
O    -90.287546 -2305080.218541    80.057545
H  7325692.846575 18293201.274148  -423.427293
H  -7324259.800495 18293088.009399  -847.247974
3
Step 916, Time 0.459 ps, Energy -119.889 kcal/mol
O    -90.386221 -2307599.431896    80.145040
H  7333699.067431 18313193.843214  -423.890055
H  -7332264.455181 18313080.454678  -848.173928
3
Step 917, Time 0.459 ps, Energy -119.889 kcal/mol
O    -90.484896 -2310118.645250    80.232535
H  7341705.288288 18333186.412280  -424.352817
H  -7340269.109867 18333072.899958  -849.099882
3
Step 918, Time 0.460 ps, Energy -119.889 kcal/mol
O    -90.583571 -2312637.858605    80.320029
H  7349711.509144 18353178.981346  -424.815579
H  -7348273.764552 18353065.345237  -850.025836
3
Step 919, Time 0.460 ps, Energy -119.889 kcal/mol
O    -90.682246 -2315157.071959    80.407524
H  7357717.730000 18373171.550412  -425.278341
H  -7356278.419238 18373057.790516  -850.951790
3
Step 920, Time 0.461 ps, Energy -119.889 kcal/mol
O    -90.780921 -2317676.285314    80.495018
H  7365723.950857 18393164.119478  -425.741103
H  -7364283.073924 18393050.235796  -851.877744
3
Step 921, Time 0.461 ps, Energy -119.889 kcal/mol
O    -90.879595 -2320195.498669    80.582513
H  7373730.171713 18413156.688544  -426.203865
H  -7372287.728610 18413042.681075  -852.803698
3
Step 922, Time 0.462 ps, Energy -119.889 kcal/mol
O    -90.978270 -2322714.712023    80.670008
H  7381736.392570 18433149.257610  -426.666627
H  -7380292.383296 18433035.126354  -853.729652
3
Step 923, Time 0.462 ps, Energy -119.889 kcal/mol
O    -91.076945 -2325233.925378    80.757502
H  7389742.613426 18453141.826676  -427.129390
H  -7388297.037982 18453027.571634  -854.655606
3
Step 924, Time 0.463 ps, Energy -119.889 kcal/mol
O    -91.175620 -2327753.138732    80.844997
H  7397748.834282 18473134.395742  -427.592152
H  -7396301.692667 18473020.016913  -855.581560
3
Step 925, Time 0.463 ps, Energy -119.889 kcal/mol
O    -91.274295 -2330272.352087    80.932491
H  7405755.055139 18493126.964808  -428.054914
H  -7404306.347353 18493012.462193  -856.507515
3
Step 926, Time 0.464 ps, Energy -119.889 kcal/mol
O    -91.372970 -2332791.565442    81.019986
H  7413761.275995 18513119.533874  -428.517676
H  -7412311.002039 18513004.907472  -857.433469
3
Step 927, Time 0.464 ps, Energy -119.889 kcal/mol
O    -91.471645 -2335310.778796    81.107480
H  7421767.496852 18533112.102940  -428.980438
H  -7420315.656725 18532997.352751  -858.359423
3
Step 928, Time 0.465 ps, Energy -119.889 kcal/mol
O    -91.570320 -2337829.992151    81.194975
H  7429773.717708 18553104.672006  -429.443200
H  -7428320.311411 18552989.798031  -859.285377
3
Step 929, Time 0.465 ps, Energy -119.889 kcal/mol
O    -91.668995 -2340349.205505    81.282470
H  7437779.938564 18573097.241072  -429.905962
H  -7436324.966096 18572982.243310  -860.211331
3
Step 930, Time 0.466 ps, Energy -119.889 kcal/mol
O    -91.767670 -2342868.418860    81.369964
H  7445786.159421 18593089.810138  -430.368724
H  -7444329.620782 18592974.688590  -861.137285
3
Step 931, Time 0.466 ps, Energy -119.889 kcal/mol
O    -91.866345 -2345387.632215    81.457459
H  7453792.380277 18613082.379204  -430.831486
H  -7452334.275468 18612967.133869  -862.063239
3
Step 932, Time 0.467 ps, Energy -119.889 kcal/mol
O    -91.965020 -2347906.845569    81.544953
H  7461798.601133 18633074.948270  -431.294248
H  -7460338.930154 18632959.579148  -862.989193
3
Step 933, Time 0.467 ps, Energy -119.889 kcal/mol
O    -92.063694 -2350426.058924    81.632448
H  7469804.821990 18653067.517336  -431.757010
H  -7468343.584840 18652952.024428  -863.915147
3
Step 934, Time 0.468 ps, Energy -119.889 kcal/mol
O    -92.162369 -2352945.272278    81.719943
H  7477811.042846 18673060.086402  -432.219772
H  -7476348.239525 18672944.469707  -864.841101
3
Step 935, Time 0.468 ps, Energy -119.889 kcal/mol
O    -92.261044 -2355464.485633    81.807437
H  7485817.263703 18693052.655468  -432.682534
H  -7484352.894211 18692936.914986  -865.767055
3
Step 936, Time 0.469 ps, Energy -119.889 kcal/mol
O    -92.359719 -2357983.698988    81.894932
H  7493823.484559 18713045.224534  -433.145296
H  -7492357.548897 18712929.360266  -866.693009
3
Step 937, Time 0.469 ps, Energy -119.889 kcal/mol
O    -92.458394 -2360502.912342    81.982426
H  7501829.705415 18733037.793600  -433.608058
H  -7500362.203583 18732921.805545  -867.618963
3
Step 938, Time 0.469 ps, Energy -119.889 kcal/mol
O    -92.557069 -2363022.125697    82.069921
H  7509835.926272 18753030.362666  -434.070821
H  -7508366.858269 18752914.250825  -868.544917
3
Step 939, Time 0.470 ps, Energy -119.889 kcal/mol
O    -92.655744 -2365541.339051    82.157415
H  7517842.147128 18773022.931732  -434.533583
H  -7516371.512955 18772906.696104  -869.470872
3
Step 940, Time 0.470 ps, Energy -119.889 kcal/mol
O    -92.754419 -2368060.552406    82.244910
H  7525848.367985 18793015.500798  -434.996345
H  -7524376.167640 18792899.141383  -870.396826
3
Step 941, Time 0.471 ps, Energy -119.889 kcal/mol
O    -92.853094 -2370579.765761    82.332405
H  7533854.588841 18813008.069864  -435.459107
H  -7532380.822326 18812891.586663  -871.322780
3
Step 942, Time 0.471 ps, Energy -119.889 kcal/mol
O    -92.951769 -2373098.979115    82.419899
H  7541860.809697 18833000.638930  -435.921869
H  -7540385.477012 18832884.031942  -872.248734
3
Step 943, Time 0.472 ps, Energy -119.889 kcal/mol
O    -93.050444 -2375618.192470    82.507394
H  7549867.030554 18852993.207996  -436.384631
H  -7548390.131698 18852876.477222  -873.174688
3
Step 944, Time 0.472 ps, Energy -119.889 kcal/mol
O    -93.149118 -2378137.405824    82.594888
H  7557873.251410 18872985.777062  -436.847393
H  -7556394.786383 18872868.922501  -874.100642
3
Step 945, Time 0.473 ps, Energy -119.889 kcal/mol
O    -93.247793 -2380656.619179    82.682383
H  7565879.472266 18892978.346128  -437.310155
H  -7564399.441069 18892861.367780  -875.026596
3
Step 946, Time 0.473 ps, Energy -119.889 kcal/mol
O    -93.346468 -2383175.832534    82.769878
H  7573885.693123 18912970.915194  -437.772917
H  -7572404.095755 18912853.813060  -875.952550
3
Step 947, Time 0.474 ps, Energy -119.889 kcal/mol
O    -93.445143 -2385695.045888    82.857372
H  7581891.913979 18932963.484260  -438.235679
H  -7580408.750441 18932846.258339  -876.878504
3
Step 948, Time 0.474 ps, Energy -119.889 kcal/mol
O    -93.543818 -2388214.259243    82.944867
H  7589898.134836 18952956.053326  -438.698441
H  -7588413.405127 18952838.703619  -877.804458
3
Step 949, Time 0.475 ps, Energy -119.889 kcal/mol
O    -93.642493 -2390733.472597    83.032361
H  7597904.355692 18972948.622392  -439.161203
H  -7596418.059812 18972831.148898  -878.730412
3
Step 950, Time 0.475 ps, Energy -119.889 kcal/mol
O    -93.741168 -2393252.685952    83.119856
H  7605910.576548 18992941.191458  -439.623965
H  -7604422.714498 18992823.594177  -879.656366
3
Step 951, Time 0.476 ps, Energy -119.889 kcal/mol
O    -93.839843 -2395771.899306    83.207350
H  7613916.797405 19012933.760524  -440.086727
H  -7612427.369184 19012816.039457  -880.582320
3
Step 952, Time 0.476 ps, Energy -119.889 kcal/mol
O    -93.938518 -2398291.112661    83.294845
H  7621923.018261 19032926.329590  -440.549490
H  -7620432.023870 19032808.484736  -881.508274
3
Step 953, Time 0.477 ps, Energy -119.889 kcal/mol
O    -94.037193 -2400810.326016    83.382340
H  7629929.239117 19052918.898656  -441.012252
H  -7628436.678556 19052800.930016  -882.434229
3
Step 954, Time 0.477 ps, Energy -119.889 kcal/mol
O    -94.135868 -2403329.539370    83.469834
H  7637935.459974 19072911.467722  -441.475014
H  -7636441.333241 19072793.375295  -883.360183
3
Step 955, Time 0.478 ps, Energy -119.889 kcal/mol
O    -94.234543 -2405848.752725    83.557329
H  7645941.680830 19092904.036788  -441.937776
H  -7644445.987927 19092785.820575  -884.286137
3
Step 956, Time 0.478 ps, Energy -119.889 kcal/mol
O    -94.333217 -2408367.966079    83.644823
H  7653947.901686 19112896.605854  -442.400538
H  -7652450.642613 19112778.265854  -885.212091
3
Step 957, Time 0.479 ps, Energy -119.889 kcal/mol
O    -94.431892 -2410887.179434    83.732318
H  7661954.122543 19132889.174920  -442.863300
H  -7660455.297299 19132770.711133  -886.138045
3
Step 958, Time 0.479 ps, Energy -119.889 kcal/mol
O    -94.530567 -2413406.392789    83.819813
H  7669960.343399 19152881.743986  -443.326062
H  -7668459.951985 19152763.156413  -887.063999
3
Step 959, Time 0.480 ps, Energy -119.889 kcal/mol
O    -94.629242 -2415925.606143    83.907307
H  7677966.564256 19172874.313052  -443.788824
H  -7676464.606670 19172755.601692  -887.989953
3
Step 960, Time 0.480 ps, Energy -119.889 kcal/mol
O    -94.727917 -2418444.819498    83.994802
H  7685972.785112 19192866.882118  -444.251586
H  -7684469.261356 19192748.046972  -888.915907
3
Step 961, Time 0.481 ps, Energy -119.889 kcal/mol
O    -94.826592 -2420964.032852    84.082296
H  7693979.005968 19212859.451184  -444.714348
H  -7692473.916042 19212740.492251  -889.841861
3
Step 962, Time 0.481 ps, Energy -119.889 kcal/mol
O    -94.925267 -2423483.246207    84.169791
H  7701985.226825 19232852.020250  -445.177110
H  -7700478.570728 19232732.937530  -890.767815
3
Step 963, Time 0.482 ps, Energy -119.889 kcal/mol
O    -95.023942 -2426002.459562    84.257285
H  7709991.447681 19252844.589316  -445.639872
H  -7708483.225413 19252725.382810  -891.693769
3
Step 964, Time 0.482 ps, Energy -119.889 kcal/mol
O    -95.122617 -2428521.672916    84.344780
H  7717997.668537 19272837.158382  -446.102634
H  -7716487.880099 19272717.828089  -892.619723
3
Step 965, Time 0.483 ps, Energy -119.889 kcal/mol
O    -95.221292 -2431040.886271    84.432275
H  7726003.889394 19292829.727448  -446.565396
H  -7724492.534785 19292710.273369  -893.545677
3
Step 966, Time 0.483 ps, Energy -119.889 kcal/mol
O    -95.319967 -2433560.099625    84.519769
H  7734010.110250 19312822.296514  -447.028158
H  -7732497.189471 19312702.718648  -894.471631
3
Step 967, Time 0.484 ps, Energy -119.889 kcal/mol
O    -95.418642 -2436079.312980    84.607264
H  7742016.331106 19332814.865580  -447.490921
H  -7740501.844157 19332695.163928  -895.397585
3
Step 968, Time 0.484 ps, Energy -119.889 kcal/mol
O    -95.517316 -2438598.526335    84.694758
H  7750022.551963 19352807.434646  -447.953683
H  -7748506.498842 19352687.609207  -896.323540
3
Step 969, Time 0.485 ps, Energy -119.889 kcal/mol
O    -95.615991 -2441117.739689    84.782253
H  7758028.772819 19372800.003712  -448.416445
H  -7756511.153528 19372680.054486  -897.249494
3
Step 970, Time 0.485 ps, Energy -119.889 kcal/mol
O    -95.714666 -2443636.953044    84.869748
H  7766034.993675 19392792.572778  -448.879207
H  -7764515.808214 19392672.499766  -898.175448
3
Step 971, Time 0.486 ps, Energy -119.889 kcal/mol
O    -95.813341 -2446156.166398    84.957242
H  7774041.214532 19412785.141844  -449.341969
H  -7772520.462900 19412664.945045  -899.101402
3
Step 972, Time 0.486 ps, Energy -119.889 kcal/mol
O    -95.912016 -2448675.379753    85.044737
H  7782047.435388 19432777.710910  -449.804731
H  -7780525.117585 19432657.390325  -900.027356
3
Step 973, Time 0.487 ps, Energy -119.889 kcal/mol
O    -96.010691 -2451194.593108    85.132231
H  7790053.656245 19452770.279976  -450.267493
H  -7788529.772271 19452649.835604  -900.953310
3
Step 974, Time 0.487 ps, Energy -119.889 kcal/mol
O    -96.109366 -2453713.806462    85.219726
H  7798059.877101 19472762.849043  -450.730255
H  -7796534.426957 19472642.280884  -901.879264
3
Step 975, Time 0.488 ps, Energy -119.889 kcal/mol
O    -96.208041 -2456233.019817    85.307221
H  7806066.097957 19492755.418109  -451.193017
H  -7804539.081643 19492634.726163  -902.805218
3
Step 976, Time 0.488 ps, Energy -119.889 kcal/mol
O    -96.306716 -2458752.233171    85.394715
H  7814072.318814 19512747.987175  -451.655779
H  -7812543.736329 19512627.171442  -903.731172
3
Step 977, Time 0.489 ps, Energy -119.889 kcal/mol
O    -96.405391 -2461271.446526    85.482210
H  7822078.539670 19532740.556241  -452.118541
H  -7820548.391014 19532619.616722  -904.657126
3
Step 978, Time 0.489 ps, Energy -119.889 kcal/mol
O    -96.504066 -2463790.659881    85.569704
H  7830084.760526 19552733.125307  -452.581303
H  -7828553.045700 19552612.062001  -905.583080
3
Step 979, Time 0.490 ps, Energy -119.889 kcal/mol
O    -96.602740 -2466309.873235    85.657199
H  7838090.981383 19572725.694373  -453.044065
H  -7836557.700386 19572604.507281  -906.509034
3
Step 980, Time 0.490 ps, Energy -119.889 kcal/mol
O    -96.701415 -2468829.086590    85.744693
H  7846097.202239 19592718.263439  -453.506827
H  -7844562.355072 19592596.952560  -907.434988
3
Step 981, Time 0.491 ps, Energy -119.889 kcal/mol
O    -96.800090 -2471348.299944    85.832188
H  7854103.423095 19612710.832505  -453.969590
H  -7852567.009757 19612589.397840  -908.360942
3
Step 982, Time 0.491 ps, Energy -119.889 kcal/mol
O    -96.898765 -2473867.513299    85.919683
H  7862109.643952 19632703.401571  -454.432352
H  -7860571.664443 19632581.843119  -909.286897
3
Step 983, Time 0.492 ps, Energy -119.889 kcal/mol
O    -96.997440 -2476386.726654    86.007177
H  7870115.864808 19652695.970637  -454.895114
H  -7868576.319129 19652574.288399  -910.212851
3
Step 984, Time 0.492 ps, Energy -119.889 kcal/mol
O    -97.096115 -2478905.940008    86.094672
H  7878122.085664 19672688.539703  -455.357876
H  -7876580.973815 19672566.733678  -911.138805
3
Step 985, Time 0.493 ps, Energy -119.889 kcal/mol
O    -97.194790 -2481425.153363    86.182166
H  7886128.306521 19692681.108769  -455.820638
H  -7884585.628500 19692559.178957  -912.064759
3
Step 986, Time 0.493 ps, Energy -119.889 kcal/mol
O    -97.293465 -2483944.366717    86.269661
H  7894134.527377 19712673.677835  -456.283400
H  -7892590.283186 19712551.624237  -912.990713
3
Step 987, Time 0.494 ps, Energy -119.889 kcal/mol
O    -97.392140 -2486463.580072    86.357156
H  7902140.748233 19732666.246901  -456.746162
H  -7900594.937872 19732544.069516  -913.916667
3
Step 988, Time 0.494 ps, Energy -119.889 kcal/mol
O    -97.490815 -2488982.793427    86.444650
H  7910146.969090 19752658.815967  -457.208924
H  -7908599.592558 19752536.514796  -914.842621
3
Step 989, Time 0.495 ps, Energy -119.889 kcal/mol
O    -97.589490 -2491502.006781    86.532145
H  7918153.189946 19772651.385033  -457.671686
H  -7916604.247243 19772528.960075  -915.768575
3
Step 990, Time 0.495 ps, Energy -119.889 kcal/mol
O    -97.688165 -2494021.220136    86.619639
H  7926159.410802 19792643.954099  -458.134448
H  -7924608.901929 19792521.405355  -916.694529
3
Step 991, Time 0.496 ps, Energy -119.889 kcal/mol
O    -97.786839 -2496540.433490    86.707134
H  7934165.631659 19812636.523165  -458.597210
H  -7932613.556615 19812513.850634  -917.620483
3
Step 992, Time 0.496 ps, Energy -119.889 kcal/mol
O    -97.885514 -2499059.646845    86.794628
H  7942171.852515 19832629.092231  -459.059972
H  -7940618.211301 19832506.295914  -918.546437
3
Step 993, Time 0.497 ps, Energy -119.889 kcal/mol
O    -97.984189 -2501578.860200    86.882123
H  7950178.073371 19852621.661298  -459.522734
H  -7948622.865986 19852498.741193  -919.472391
3
Step 994, Time 0.497 ps, Energy -119.889 kcal/mol
O    -98.082864 -2504098.073554    86.969618
H  7958184.294228 19872614.230364  -459.985496
H  -7956627.520672 19872491.186472  -920.398345
3
Step 995, Time 0.498 ps, Energy -119.889 kcal/mol
O    -98.181539 -2506617.286909    87.057112
H  7966190.515084 19892606.799430  -460.448258
H  -7964632.175358 19892483.631752  -921.324299
3
Step 996, Time 0.498 ps, Energy -119.889 kcal/mol
O    -98.280214 -2509136.500263    87.144607
H  7974196.735940 19912599.368496  -460.911021
H  -7972636.830044 19912476.077031  -922.250254
3
Step 997, Time 0.499 ps, Energy -119.889 kcal/mol
O    -98.378889 -2511655.713618    87.232101
H  7982202.956797 19932591.937562  -461.373783
H  -7980641.484729 19932468.522311  -923.176208
3
Step 998, Time 0.499 ps, Energy -119.889 kcal/mol
O    -98.477564 -2514174.926973    87.319596
H  7990209.177653 19952584.506628  -461.836545
H  -7988646.139415 19952460.967590  -924.102162
3
Step 999, Time 0.500 ps, Energy -119.889 kcal/mol
O    -98.576239 -2516694.140327    87.407091
H  7998215.398509 19972577.075694  -462.299307
H  -7996650.794101 19972453.412870  -925.028116
3
