3

O       2.62033e-02    -1.10456e-04     1.40733e-02
H       8.08108e-01     5.61998e-01     2.34588e-02
H      -7.92400e-01     5.04323e-01    -9.63889e-03
3

O       4.81736e-02    -1.04003e-02     3.22659e-02
H       7.68215e-01     6.41066e-01     5.97756e-02
H      -7.67439e-01     5.13041e-01    -5.46129e-03
3

O       6.77030e-02    -2.36887e-02     3.98507e-02
H       7.20157e-01     6.89459e-01     1.17242e-01
H      -6.91123e-01     5.49367e-01    -1.27186e-02
3

O       8.59147e-02    -2.29610e-02     4.23656e-02
H       7.70462e-01     6.51004e-01     1.69828e-01
H      -7.36573e-01     5.06845e-01    -4.02735e-02
3

O       1.00789e-01    -2.24517e-02     3.61458e-02
H       8.06470e-01     6.05851e-01     2.13569e-01
H      -7.34657e-01     4.20432e-01    -4.13076e-02
3

O       1.14256e-01    -4.36049e-02     2.13241e-02
H       7.62354e-01     6.30221e-01     2.58060e-01
H      -7.29738e-01     4.55624e-01    -4.84662e-02
3

O       1.17974e-01    -6.39875e-02    -6.05769e-03
H       7.20635e-01     6.31354e-01     3.02217e-01
H      -6.63324e-01     4.78566e-01    -5.99747e-02
3

O       1.22409e-01    -7.63978e-02    -3.47807e-02
H       7.55557e-01     5.43956e-01     3.45568e-01
H      -7.12826e-01     4.40702e-01    -1.09736e-01
3

O       1.23514e-01    -8.56398e-02    -6.25316e-02
H       7.54519e-01     4.74524e-01     4.02691e-01
H      -7.05551e-01     3.81059e-01    -1.22458e-01
3

O       1.33296e-01    -9.89195e-02    -8.64859e-02
H       6.86389e-01     4.59586e-01     4.70959e-01
H      -6.87714e-01     4.18455e-01    -1.05586e-01
3

O       1.39200e-01    -1.10125e-01    -1.04858e-01
H       6.43372e-01     4.42544e-01     5.23656e-01
H      -6.76252e-01     4.30632e-01    -1.12516e-01
3

O       1.46620e-01    -1.03911e-01    -1.18510e-01
H       6.64579e-01     3.45902e-01     5.63538e-01
H      -6.74526e-01     3.91816e-01    -1.63616e-01
3

O       1.53561e-01    -1.00367e-01    -1.28916e-01
H       6.61733e-01     2.88711e-01     5.85086e-01
H      -7.06322e-01     3.45364e-01    -2.09553e-01
3

O       1.61072e-01    -1.06000e-01    -1.48112e-01
H       5.56272e-01     3.29442e-01     6.33516e-01
H      -6.92276e-01     3.20676e-01    -2.17233e-01
3

O       1.70843e-01    -1.09596e-01    -1.63559e-01
H       4.10286e-01     3.56870e-01     6.41046e-01
H      -7.13178e-01     2.83782e-01    -2.51195e-01
3

O       1.69753e-01    -1.04609e-01    -1.77400e-01
H       4.18087e-01     3.53354e-01     6.49795e-01
H      -7.40348e-01     1.81273e-01    -3.75994e-01
3

O       1.63566e-01    -9.74815e-02    -1.98207e-01
H       3.97293e-01     3.23923e-01     6.43808e-01
H      -7.27820e-01     1.22420e-01    -4.50531e-01
3

O       1.66918e-01    -9.96457e-02    -2.26119e-01
H       2.79918e-01     3.30132e-01     6.22082e-01
H      -7.53585e-01     1.89922e-01    -4.49854e-01
3

O       1.66785e-01    -1.02149e-01    -2.45648e-01
H       2.14351e-01     3.58410e-01     6.21917e-01
H      -6.90277e-01     2.32384e-01    -4.85238e-01
3

O       1.56790e-01    -1.00461e-01    -2.52733e-01
H       2.63144e-01     3.47453e-01     5.91898e-01
H      -6.79802e-01     2.79448e-01    -6.33354e-01
3

O       1.39886e-01    -1.04348e-01    -2.65234e-01
H       3.24580e-01     3.75504e-01     5.50926e-01
H      -5.52790e-01     3.06069e-01    -7.53692e-01
3

O       1.35835e-01    -1.17746e-01    -2.80652e-01
H       3.14912e-01     4.70934e-01     4.71347e-01
H      -4.82488e-01     4.29443e-01    -8.24027e-01
3

O       1.27864e-01    -1.31179e-01    -2.89842e-01
H       3.15171e-01     5.51854e-01     3.66919e-01
H      -3.63459e-01     4.76057e-01    -8.63555e-01
3

O       1.17753e-01    -1.28841e-01    -3.02185e-01
H       4.09118e-01     5.47603e-01     3.54112e-01
H      -2.86681e-01     3.63904e-01    -1.03915e+00
3

O       1.14250e-01    -1.14212e-01    -3.18787e-01
H       4.63092e-01     5.36808e-01     2.85866e-01
H      -1.98599e-01     2.65000e-01    -1.15612e+00
3

O       1.08899e-01    -1.15806e-01    -3.37235e-01
H       4.90185e-01     6.51332e-01     1.26322e-01
H      -5.11338e-02     2.73591e-01    -1.19719e+00
3

O       1.11966e-01    -1.10779e-01    -3.52275e-01
H       5.27020e-01     7.23351e-01    -3.25984e-02
H       6.91146e-02     2.49683e-01    -1.27417e+00
3

O       1.23970e-01    -8.72437e-02    -3.77969e-01
H       5.31568e-01     7.16774e-01    -5.60863e-02
H       9.41566e-02     2.29210e-02    -1.33390e+00
3

O       1.30519e-01    -7.04933e-02    -4.00661e-01
H       5.58722e-01     7.23840e-01    -7.28321e-02
H       1.31488e-01    -1.69637e-01    -1.37352e+00
3

O       1.32503e-01    -7.07806e-02    -4.14562e-01
H       6.24116e-01     7.65970e-01    -2.50898e-01
H       2.56600e-01    -1.77089e-01    -1.35673e+00
3

O       1.45336e-01    -6.75841e-02    -4.27322e-01
H       6.44395e-01     7.60093e-01    -4.08956e-01
H       3.47406e-01    -1.99476e-01    -1.39310e+00
3

O       1.74406e-01    -5.48403e-02    -4.49296e-01
H       6.49208e-01     7.94769e-01    -3.82663e-01
H       3.31670e-01    -3.68324e-01    -1.34613e+00
3

O       2.03892e-01    -3.14920e-02    -4.72089e-01
H       6.72768e-01     8.07945e-01    -4.18695e-01
H       3.13149e-01    -4.57364e-01    -1.32427e+00
3

O       2.18058e-01    -1.08810e-02    -4.83113e-01
H       7.49174e-01     7.96610e-01    -6.05124e-01
H       3.56825e-01    -4.47884e-01    -1.34541e+00
3

O       2.42005e-01     1.54509e-02    -4.97065e-01
H       8.04114e-01     7.64320e-01    -7.37211e-01
H       3.72708e-01    -4.51924e-01    -1.31964e+00
3

O       2.68505e-01     4.59684e-02    -5.19665e-01
H       8.21601e-01     8.08778e-01    -7.38459e-01
H       2.90391e-01    -5.94394e-01    -1.27406e+00
3

O       2.97892e-01     6.25868e-02    -5.40953e-01
H       8.70320e-01     7.74491e-01    -8.35452e-01
H       2.63049e-01    -6.25858e-01    -1.20428e+00
3

O       3.23623e-01     7.61979e-02    -5.45980e-01
H       9.34111e-01     6.81177e-01    -1.02293e+00
H       3.32252e-01    -6.26242e-01    -1.21909e+00
3

O       3.47637e-01     8.94571e-02    -5.57446e-01
H       9.47308e-01     6.31871e-01    -1.09058e+00
H       3.19435e-01    -6.90203e-01    -1.15690e+00
3

O       3.67353e-01     9.45649e-02    -5.73517e-01
H       9.75221e-01     6.38676e-01    -1.08886e+00
H       2.45477e-01    -7.58039e-01    -9.87221e-01
3

O       3.79905e-01     1.00426e-01    -5.75035e-01
H       1.03140e+00     5.27346e-01    -1.16344e+00
H       2.65894e-01    -8.10630e-01    -8.91763e-01
3

O       3.95173e-01     9.99140e-02    -5.76354e-01
H       1.05821e+00     3.37438e-01    -1.23893e+00
H       3.30819e-01    -8.32205e-01    -8.29740e-01
3

O       4.08134e-01     9.30495e-02    -5.89054e-01
H       1.09596e+00     2.44594e-01    -1.29004e+00
H       3.15192e-01    -8.83326e-01    -6.84734e-01
3

O       4.22614e-01     7.87654e-02    -6.02249e-01
H       1.08028e+00     2.05679e-01    -1.26040e+00
H       2.67700e-01    -8.55375e-01    -4.83152e-01
3

O       4.24190e-01     7.25362e-02    -6.09795e-01
H       1.16407e+00     7.38065e-02    -1.26511e+00
H       2.89316e-01    -8.58848e-01    -3.48133e-01
3

O       4.29158e-01     6.98248e-02    -6.17637e-01
H       1.17880e+00    -8.22922e-02    -1.19505e+00
H       3.51396e-01    -8.35063e-01    -2.96148e-01
3

O       4.36579e-01     5.92332e-02    -6.32690e-01
H       1.21819e+00    -1.02615e-01    -1.20493e+00
H       3.49072e-01    -8.08555e-01    -1.63804e-01
3

O       4.41198e-01     4.04333e-02    -6.47699e-01
H       1.20508e+00    -7.07116e-02    -1.21204e+00
H       3.41517e-01    -7.00185e-01    -5.86123e-02
3

O       4.45383e-01     3.64103e-02    -6.53844e-01
H       1.22574e+00    -1.25086e-01    -1.19503e+00
H       4.19040e-01    -6.78746e-01    -6.20205e-04
3

O       4.48531e-01     3.25029e-02    -6.53942e-01
H       1.25275e+00    -2.00431e-01    -1.16950e+00
H       5.43814e-01    -6.92017e-01     2.37134e-02
3

O       4.57700e-01     2.53207e-02    -6.44899e-01
H       1.21178e+00    -1.77865e-01    -1.20211e+00
H       6.05646e-01    -5.85525e-01     4.90284e-02
3

O       4.63766e-01     1.56138e-02    -6.35594e-01
H       1.20066e+00    -1.08070e-01    -1.26440e+00
H       6.49083e-01    -5.16624e-01     1.95918e-01
3

O       4.63213e-01     1.01684e-02    -6.25466e-01
H       1.19946e+00    -1.07944e-01    -1.22166e+00
H       7.55852e-01    -3.82807e-01     1.68308e-01
3

O       4.58255e-01     1.84894e-02    -6.22732e-01
H       1.22459e+00    -1.31949e-01    -1.22673e+00
H       8.95285e-01    -2.97317e-01     2.16429e-01
3

O       4.70985e-01     1.97942e-02    -6.21357e-01
H       1.17968e+00    -1.19255e-01    -1.25291e+00
H       9.13543e-01    -1.59216e-01     2.15287e-01
3

O       4.75566e-01     1.77209e-02    -6.13437e-01
H       1.15025e+00    -1.05184e-01    -1.31275e+00
H       9.17238e-01    -6.28503e-02     2.32573e-01
3

O       4.67794e-01     6.85082e-03    -6.10967e-01
H       1.13116e+00    -1.02646e-01    -1.29352e+00
H       1.00637e+00     4.34000e-03     2.22541e-01
3

O       4.65306e-01    -8.98495e-03    -6.08840e-01
H       1.15394e+00    -1.28709e-01    -1.28581e+00
H       1.02499e+00     6.57270e-02     1.50218e-01
3

O       4.68413e-01    -1.69253e-02    -6.12294e-01
H       1.12931e+00    -1.53050e-01    -1.31902e+00
H       1.01081e+00     1.43425e-01     1.97364e-01
3

O       4.79377e-01    -1.99238e-02    -6.10535e-01
H       1.09092e+00    -1.82059e-01    -1.31039e+00
H       9.54887e-01     2.18029e-01     1.72777e-01
3

O       4.76777e-01    -1.82395e-02    -6.08092e-01
H       1.18140e+00    -2.06480e-01    -1.28661e+00
H       1.00450e+00     2.52066e-01     1.75258e-01
3

O       4.72474e-01    -1.59658e-02    -6.05225e-01
H       1.16447e+00    -2.24526e-01    -1.20331e+00
H       9.98230e-01     2.90729e-01     1.43599e-01
3

O       4.68147e-01    -7.24792e-03    -6.02291e-01
H       1.18916e+00    -2.70539e-01    -1.23886e+00
H       9.36476e-01     3.32228e-01     1.70783e-01
3

O       4.65226e-01    -3.34213e-03    -6.09419e-01
H       1.17691e+00    -2.98600e-01    -1.17426e+00
H       9.08894e-01     3.84901e-01     1.82565e-01
3

O       4.58239e-01     1.07761e-02    -6.13129e-01
H       1.23684e+00    -3.22984e-01    -1.08944e+00
H       8.97306e-01     4.03879e-01     1.28277e-01
3

O       4.55378e-01     2.08021e-02    -6.13543e-01
H       1.26207e+00    -3.71445e-01    -1.02973e+00
H       8.79271e-01     4.85280e-01     1.61230e-01
3

O       4.59102e-01     2.68039e-02    -6.14246e-01
H       1.20605e+00    -3.56870e-01    -1.00411e+00
H       7.51207e-01     5.33764e-01     1.26983e-01
3

O       4.48556e-01     3.63468e-02    -6.16301e-01
H       1.30824e+00    -3.66972e-01    -9.96243e-01
H       7.15090e-01     5.86309e-01     1.52322e-01
3

O       4.37994e-01     3.80799e-02    -6.27093e-01
H       1.28839e+00    -2.47385e-01    -8.87561e-01
H       7.47481e-01     6.04564e-01     1.10676e-01
3

O       4.38198e-01     4.77353e-02    -6.30232e-01
H       1.35696e+00    -2.51734e-01    -9.17558e-01
H       6.62492e-01     6.46543e-01     7.51505e-02
3

O       4.41441e-01     5.26516e-02    -6.33471e-01
H       1.28478e+00    -2.62362e-01    -9.36891e-01
H       5.54917e-01     7.29300e-01     7.60209e-02
3

O       4.16191e-01     6.69267e-02    -6.38537e-01
H       1.30866e+00    -2.02515e-01    -9.29067e-01
H       5.52727e-01     7.36040e-01     2.29675e-02
3

O       3.82788e-01     8.32666e-02    -6.52388e-01
H       1.33009e+00    -9.29357e-02    -9.14952e-01
H       5.91618e-01     8.01928e-01     3.60914e-03
3

O       3.70581e-01     1.13863e-01    -6.60650e-01
H       1.24587e+00    -4.56604e-02    -9.61928e-01
H       5.15577e-01     7.99103e-01    -3.15294e-02
3

O       3.48874e-01     1.39824e-01    -6.62586e-01
H       1.26561e+00    -5.05987e-02    -1.08043e+00
H       4.15872e-01     8.62098e-01     1.34448e-02
3

O       3.31189e-01     1.57505e-01    -6.75799e-01
H       1.15629e+00     8.92112e-02    -1.03860e+00
H       4.56421e-01     8.47859e-01    -3.90612e-02
3

O       2.97389e-01     1.76686e-01    -6.88666e-01
H       1.23985e+00     1.86522e-01    -1.12008e+00
H       4.79942e-01     8.88133e-01    -1.07824e-02
3

O       2.79076e-01     2.08988e-01    -7.01636e-01
H       1.07765e+00     2.41990e-01    -1.17863e+00
H       4.01612e-01     8.43313e-01    -4.36861e-03
3

O       2.47437e-01     2.29686e-01    -7.12658e-01
H       1.05050e+00     3.14673e-01    -1.29865e+00
H       3.64314e-01     8.48671e-01     3.18817e-02
3

O       2.21474e-01     2.42834e-01    -7.24414e-01
H       9.53582e-01     4.64262e-01    -1.32194e+00
H       3.76268e-01     8.30900e-01     2.84311e-02
3

O       1.99850e-01     2.68082e-01    -7.39195e-01
H       8.81677e-01     6.06068e-01    -1.33411e+00
H       4.12116e-01     8.01133e-01     4.70809e-02
3

O       1.83840e-01     2.97090e-01    -7.44038e-01
H       8.03387e-01     7.40076e-01    -1.40508e+00
H       3.84376e-01     7.32084e-01     1.00198e-01
3

O       1.70256e-01     3.36558e-01    -7.58988e-01
H       6.64373e-01     8.31656e-01    -1.34939e+00
H       3.78506e-01     6.57660e-01     1.14981e-01
3

O       1.41397e-01     3.66587e-01    -7.68729e-01
H       6.48648e-01     1.02362e+00    -1.36036e+00
H       4.17392e-01     6.09870e-01     1.57114e-01
3

O       1.20943e-01     3.96767e-01    -7.76530e-01
H       5.43922e-01     1.09643e+00    -1.22567e+00
H       4.51925e-01     5.44708e-01     9.17774e-02
3

O       9.15218e-02     4.17935e-01    -7.90182e-01
H       4.77563e-01     1.23224e+00    -1.23475e+00
H       5.07308e-01     4.41305e-01     1.03336e-01
3

O       6.44351e-02     4.45506e-01    -8.11745e-01
H       3.68333e-01     1.28053e+00    -1.20213e+00
H       5.17625e-01     3.11800e-01     2.40613e-02
3

O       3.35877e-02     4.67275e-01    -8.43411e-01
H       3.47114e-01     1.33055e+00    -1.11368e+00
H       5.66729e-01     2.90864e-01    -6.24784e-02
3

O       2.97995e-03     4.77612e-01    -8.74504e-01
H       3.16639e-01     1.42243e+00    -1.02101e+00
H       6.37764e-01     2.57094e-01    -1.52580e-01
3

O      -1.29677e-02     4.92804e-01    -8.97592e-01
H       2.21400e-01     1.38207e+00    -9.93329e-01
H       6.41469e-01     1.28757e-01    -2.97170e-01
3

O      -3.35979e-02     4.91104e-01    -9.18633e-01
H       2.11296e-01     1.48589e+00    -9.38707e-01
H       6.92685e-01     8.26917e-03    -4.40733e-01
3

O      -5.18661e-02     4.94081e-01    -9.43196e-01
H       2.26354e-01     1.36881e+00    -8.17324e-01
H       6.89907e-01     2.78508e-02    -5.93024e-01
3

O      -6.95526e-02     4.94816e-01    -9.55753e-01
H       2.43076e-01     1.41428e+00    -6.90717e-01
H       7.36641e-01    -3.59181e-02    -6.99886e-01
3

O      -7.19273e-02     5.02009e-01    -9.56703e-01
H       1.94428e-01     1.36160e+00    -6.39412e-01
H       6.66460e-01    -8.02664e-02    -8.47769e-01
3

O      -7.36270e-02     5.18515e-01    -9.57228e-01
H       2.22294e-01     1.33583e+00    -5.42710e-01
H       6.85414e-01    -9.13957e-02    -9.54525e-01
3

O      -7.64580e-02     5.33892e-01    -9.62486e-01
H       2.84952e-01     1.27243e+00    -3.99629e-01
H       7.30251e-01    -3.47770e-02    -1.01893e+00
3

O      -8.30322e-02     5.50790e-01    -9.66984e-01
H       2.56804e-01     1.15500e+00    -3.26233e-01
H       6.92587e-01     1.65955e-02    -1.10865e+00
3

O      -9.46032e-02     5.65968e-01    -9.78987e-01
H       2.14921e-01     1.10472e+00    -2.00901e-01
H       6.81990e-01    -2.39941e-02    -1.25214e+00
3

O      -1.02254e-01     5.79611e-01    -9.89946e-01
H       2.33786e-01     9.46321e-01    -1.81263e-01
H       5.82782e-01     6.37527e-02    -1.31457e+00
3

O      -1.17405e-01     5.93776e-01    -1.00889e+00
H       2.75564e-01     7.95411e-01    -1.17304e-01
H       6.44667e-01     5.17936e-02    -1.42201e+00
