6

O       0.00000e+00     0.00000e+00     0.00000e+00
H       9.57000e-01     0.00000e+00     0.00000e+00
H      -2.40000e-01     9.27000e-01     0.00000e+00
O       3.00000e+00     0.00000e+00     0.00000e+00
H       3.95700e+00     0.00000e+00     0.00000e+00
H       2.76000e+00     9.27000e-01     0.00000e+00
6

O      -2.21423e-02     1.83753e-02     0.00000e+00
H       9.24529e-01     1.07590e-02     0.00000e+00
H      -2.28262e-01     9.02884e-01     0.00000e+00
O       3.02615e+00     2.42649e-02     0.00000e+00
H       3.92790e+00     3.55281e-03     0.00000e+00
H       2.76154e+00     8.94164e-01     0.00000e+00
6

O      -1.98169e-02     5.47380e-02    -1.19255e-04
H       9.09929e-01     1.56804e-02    -8.71512e-07
H      -2.15194e-01     8.61863e-01    -4.82548e-07
O       3.06258e+00     6.21803e-02    -1.18849e-08
H       3.88229e+00     4.80234e-03     6.41505e-11
H       2.77084e+00     8.53557e-01     0.00000e+00
6

O      -1.98169e-02     5.47380e-02    -1.19255e-04
H       9.09929e-01     1.56804e-02    -8.71512e-07
H      -2.15194e-01     8.61863e-01    -4.82548e-07
O       3.06258e+00     6.21803e-02    -1.18849e-08
H       3.88229e+00     4.80234e-03     6.41505e-11
H       2.77084e+00     8.53557e-01     0.00000e+00
6

O       0.00000e+00     0.00000e+00     0.00000e+00
H       9.57000e-01     0.00000e+00     0.00000e+00
H      -2.40000e-01     9.27000e-01     0.00000e+00
O       3.00000e+00     0.00000e+00     0.00000e+00
H       3.95700e+00     0.00000e+00     0.00000e+00
H       2.76000e+00     9.27000e-01     0.00000e+00
6

O      -2.21423e-02     1.83753e-02     0.00000e+00
H       9.24529e-01     1.07590e-02     0.00000e+00
H      -2.28262e-01     9.02884e-01     0.00000e+00
O       3.02615e+00     2.42649e-02     0.00000e+00
H       3.92790e+00     3.55281e-03     0.00000e+00
H       2.76154e+00     8.94164e-01     0.00000e+00
6

O      -1.98169e-02     5.47380e-02    -1.19255e-04
H       9.09929e-01     1.56804e-02    -8.71512e-07
H      -2.15194e-01     8.61863e-01    -4.82548e-07
O       3.06258e+00     6.21803e-02    -1.18849e-08
H       3.88229e+00     4.80234e-03     6.41505e-11
H       2.77084e+00     8.53557e-01     0.00000e+00
6

O      -1.98169e-02     5.47380e-02    -1.19255e-04
H       9.09929e-01     1.56804e-02    -8.71512e-07
H      -2.15194e-01     8.61863e-01    -4.82548e-07
O       3.06258e+00     6.21803e-02    -1.18849e-08
H       3.88229e+00     4.80234e-03     6.41505e-11
H       2.77084e+00     8.53557e-01     0.00000e+00
6

O       0.00000e+00     0.00000e+00     0.00000e+00
H       9.57000e-01     0.00000e+00     0.00000e+00
H      -2.40000e-01     9.27000e-01     0.00000e+00
O       3.00000e+00     0.00000e+00     0.00000e+00
H       3.95700e+00     0.00000e+00     0.00000e+00
H       2.76000e+00     9.27000e-01     0.00000e+00
6

O      -2.21423e-02     1.83753e-02     0.00000e+00
H       9.24529e-01     1.07590e-02     0.00000e+00
H      -2.28262e-01     9.02884e-01     0.00000e+00
O       3.02615e+00     2.42649e-02     0.00000e+00
H       3.92790e+00     3.55281e-03     0.00000e+00
H       2.76154e+00     8.94164e-01     0.00000e+00
6

O      -1.98169e-02     5.47380e-02    -1.19255e-04
H       9.09929e-01     1.56804e-02    -8.71512e-07
H      -2.15194e-01     8.61863e-01    -4.82548e-07
O       3.06258e+00     6.21803e-02    -1.18849e-08
H       3.88229e+00     4.80234e-03     6.41505e-11
H       2.77084e+00     8.53557e-01     0.00000e+00
6

O      -1.98169e-02     5.47380e-02    -1.19255e-04
H       9.09929e-01     1.56804e-02    -8.71512e-07
H      -2.15194e-01     8.61863e-01    -4.82548e-07
O       3.06258e+00     6.21803e-02    -1.18849e-08
H       3.88229e+00     4.80234e-03     6.41505e-11
H       2.77084e+00     8.53557e-01     0.00000e+00
